p cnf 20 85
13 14 2 0
-10 -16 12 0
-5 4 -9 0
-3 11 16 0
11 7 18 0
-2 18 -1 0
-20 16 -11 0
-7 -19 8 0
3 -20 11 0
18 -10 4 0
15 -3 13 0
-6 7 20 0
-3 -20 -5 0
18 -13 -17 0
19 14 9 0
3 11 -4 0
-8 -1 9 0
-6 -11 -14 0
-8 -2 -18 0
7 -19 4 0
-4 -2 -1 0
-16 7 -2 0
-9 3 8 0
14 -6 -2 0
13 7 -9 0
-7 2 6 0
-4 15 6 0
19 17 10 0
5 -18 1 0
-2 -18 9 0
-12 10 20 0
-14 3 -1 0
8 20 -15 0
-13 -19 14 0
3 9 -6 0
2 16 -11 0
-14 -7 -18 0
-13 -14 -11 0
-1 -17 -4 0
-10 9 6 0
3 -1 9 0
-5 -17 12 0
-1 2 19 0
12 19 2 0
-12 18 6 0
1 5 19 0
-12 -3 11 0
6 5 -10 0
-10 -4 16 0
6 17 3 0
-10 14 4 0
11 -20 4 0
14 -2 -10 0
-19 -13 -3 0
-8 -2 13 0
18 17 -10 0
-14 3 -12 0
-14 -7 -12 0
-17 15 7 0
-9 -7 -2 0
7 -15 -13 0
20 16 5 0
-11 -16 -19 0
-11 -20 19 0
20 5 -13 0
-3 -17 -2 0
2 10 -1 0
5 -15 -12 0
-17 3 14 0
-16 -13 -8 0
10 -17 9 0
9 10 -14 0
6 5 -8 0
-2 16 -14 0
-5 12 14 0
15 -2 -4 0
-2 5 -11 0
-13 16 4 0
4 10 -5 0
17 7 2 0
-7 -15 -12 0
-16 -9 -1 0
17 -20 -14 0
-14 -19 20 0
-3 -4 14 0
