p cnf 30 128
4 -2 19 0
16 13 -9 0
-19 1 16 0
28 -21 10 0
-17 -30 24 0
-16 10 -8 0
-22 -20 18 0
24 11 -1 0
-25 -3 21 0
21 -23 5 0
-6 7 -29 0
-18 19 1 0
-10 -18 -16 0
-7 -20 12 0
20 3 23 0
11 27 22 0
18 -7 29 0
-12 -22 -14 0
21 16 18 0
-18 -6 26 0
-23 26 -11 0
-14 -25 -17 0
-17 6 27 0
-25 24 -7 0
-22 -1 -19 0
5 -27 -6 0
-19 -29 20 0
-30 11 14 0
29 -5 -13 0
9 25 6 0
8 -2 15 0
-7 -17 21 0
8 -29 6 0
-6 -29 -27 0
-23 -21 26 0
-8 -18 12 0
18 11 -20 0
-15 -2 3 0
28 -20 22 0
-4 -22 -26 0
8 -18 -2 0
-7 -15 -8 0
-7 -22 -26 0
-8 6 15 0
-12 -28 5 0
9 21 -20 0
-5 6 -1 0
-16 -22 21 0
-12 14 -7 0
6 -18 26 0
19 -15 22 0
-12 -1 -9 0
30 8 -5 0
3 20 26 0
21 26 27 0
-24 -19 25 0
29 -2 -4 0
28 -14 3 0
-6 -28 -21 0
-3 -20 14 0
-9 12 -14 0
25 -30 -17 0
6 7 -27 0
-22 20 14 0
-24 -20 -16 0
3 -21 29 0
-23 -24 11 0
23 -22 13 0
-23 20 12 0
-12 3 -6 0
-22 -13 -2 0
-13 6 -7 0
-7 13 -6 0
-20 21 -1 0
19 -27 -23 0
9 -29 16 0
-20 -28 -14 0
-14 -21 -12 0
15 13 25 0
-21 -6 -25 0
25 -23 6 0
19 -13 -26 0
6 14 3 0
-17 -23 -28 0
-27 -16 6 0
7 -16 -26 0
-7 9 -5 0
16 -14 -20 0
17 25 -29 0
-10 23 -13 0
6 8 -5 0
13 25 -14 0
-21 -10 -12 0
-13 15 -8 0
5 -12 6 0
-22 8 -16 0
-11 23 -29 0
-9 -24 21 0
-15 25 7 0
27 -28 -18 0
-14 -26 -22 0
-18 -26 13 0
3 19 -5 0
30 -2 -3 0
7 -13 -26 0
-24 -13 -9 0
19 -18 30 0
14 11 -7 0
14 -28 -1 0
-1 -8 10 0
4 -22 8 0
18 12 -16 0
24 1 3 0
-27 17 21 0
13 -30 10 0
-26 23 12 0
15 -12 18 0
30 -25 -12 0
19 -16 -6 0
-16 6 8 0
-24 20 -13 0
17 1 18 0
-6 -14 11 0
-1 21 -29 0
-11 -13 -24 0
14 18 -4 0
13 3 -14 0
11 -8 -13 0
