p cnf 30 128
-5 21 -16 0
-5 -11 9 0
27 -21 3 0
30 -24 8 0
-4 14 9 0
-7 -3 6 0
4 -11 -19 0
-29 -11 10 0
-14 -21 6 0
-10 25 7 0
-1 -17 -9 0
6 -23 -19 0
15 25 13 0
24 25 -17 0
-9 -3 -14 0
12 28 3 0
7 -11 26 0
17 -5 -10 0
2 28 6 0
-20 -9 13 0
16 -26 -21 0
-28 25 -9 0
29 -26 24 0
27 -15 -14 0
-7 -10 -1 0
-29 13 -6 0
-30 -6 1 0
9 -25 -20 0
-3 -1 10 0
23 -17 -3 0
15 16 -18 0
-25 -19 -26 0
2 14 -20 0
-1 11 -14 0
19 -4 9 0
-7 23 -1 0
-23 -12 22 0
-30 15 13 0
-2 9 -8 0
-11 25 8 0
-14 1 -8 0
-16 -27 24 0
-17 -12 -16 0
30 -15 7 0
-10 29 -17 0
-7 -28 16 0
-19 29 4 0
-10 -21 17 0
14 -23 -24 0
-12 30 -3 0
-11 -3 26 0
-2 10 -1 0
-13 -17 -18 0
7 -3 23 0
11 -19 23 0
18 -10 12 0
28 26 -1 0
-6 -22 -10 0
21 -8 -15 0
-17 -5 6 0
-18 27 22 0
7 -8 -3 0
14 9 28 0
13 23 -9 0
-24 19 -27 0
-5 11 12 0
24 13 -6 0
17 -10 5 0
-21 22 2 0
30 -3 24 0
-3 -11 2 0
-11 -30 1 0
23 -12 29 0
23 3 -27 0
15 -4 25 0
13 16 -18 0
14 11 -1 0
20 -10 -27 0
7 -5 24 0
22 11 24 0
-4 1 25 0
-14 22 -19 0
-19 23 -3 0
27 13 -10 0
-12 13 20 0
-9 11 -4 0
-7 -4 -15 0
-12 26 -24 0
6 3 -18 0
-19 11 -1 0
4 14 16 0
-20 -19 26 0
-7 22 -24 0
-25 -17 -1 0
21 -12 15 0
6 -30 18 0
15 -6 3 0
-13 -27 20 0
-28 -27 -19 0
-28 -22 -15 0
2 -14 12 0
-14 -16 -20 0
4 -28 6 0
-14 -18 5 0
-4 -17 -18 0
-4 -22 27 0
7 -12 4 0
-8 19 -28 0
19 5 -30 0
17 6 -30 0
-29 30 2 0
-28 29 11 0
10 -21 30 0
-26 10 -30 0
28 1 -16 0
-4 -12 24 0
7 -21 -25 0
28 -9 -4 0
19 24 28 0
-14 -30 8 0
11 10 30 0
12 -13 -16 0
-4 10 11 0
-11 -16 -3 0
13 -8 1 0
4 24 -13 0
-25 23 -1 0
3 -27 -23 0
