p cnf 40 170
-1 36 -2 0
9 3 -12 0
4 -31 22 0
-21 -18 -24 0
-29 -4 -22 0
-12 -39 37 0
19 9 -37 0
23 -25 -30 0
-33 -10 -28 0
-35 38 37 0
-6 -12 39 0
32 -16 -12 0
-35 -28 -32 0
15 -4 -2 0
-31 4 -36 0
22 -20 -15 0
37 38 17 0
-27 -21 -17 0
-22 -31 -29 0
5 -9 -17 0
33 -32 -18 0
-11 -9 -40 0
39 6 37 0
-1 9 15 0
40 -37 -28 0
26 -25 -10 0
5 -14 -24 0
-8 6 -31 0
-32 -6 -26 0
23 36 34 0
17 9 -3 0
21 -37 -22 0
-12 23 -11 0
-27 34 -35 0
-36 7 32 0
-1 -31 25 0
39 4 16 0
19 -8 14 0
22 -11 29 0
-31 34 -16 0
-6 31 -2 0
8 -25 19 0
-12 -21 4 0
14 -39 -22 0
16 -32 31 0
16 -31 -4 0
22 2 -32 0
5 -36 6 0
-2 1 -15 0
17 32 -40 0
32 18 28 0
-27 33 35 0
23 -39 -12 0
8 -37 2 0
35 36 19 0
-32 2 -33 0
38 35 24 0
4 20 10 0
-14 -39 15 0
35 10 -36 0
10 -26 -40 0
-27 -2 33 0
-32 8 36 0
32 21 -19 0
37 -30 21 0
9 10 -19 0
13 -14 -27 0
-1 -36 39 0
35 -28 -16 0
27 11 29 0
-17 -28 40 0
31 -10 -27 0
-14 -8 -2 0
-3 -16 -8 0
6 13 -35 0
-40 -38 -18 0
22 37 -13 0
-31 -30 -24 0
-14 31 -11 0
-1 8 -14 0
-10 -24 -19 0
21 15 14 0
-35 15 8 0
-23 24 29 0
-25 39 1 0
-24 -31 19 0
-12 35 39 0
-23 9 -16 0
40 -28 -16 0
40 -35 31 0
-10 -35 -28 0
5 13 9 0
10 -19 22 0
23 6 3 0
-37 13 -39 0
-17 30 39 0
26 -37 -36 0
-22 -9 -34 0
16 15 -35 0
-23 7 -22 0
-6 8 31 0
6 -29 -9 0
5 3 -20 0
-30 34 40 0
-14 -28 -33 0
28 -20 -14 0
-18 23 7 0
8 -14 -24 0
-26 -17 40 0
2 -17 -31 0
-5 4 13 0
-26 -31 -5 0
-7 -16 27 0
-13 -1 15 0
11 4 -36 0
24 28 1 0
21 22 28 0
-22 8 -33 0
-16 8 20 0
-13 30 -38 0
-37 -31 20 0
-6 13 17 0
14 37 7 0
9 27 -7 0
4 16 29 0
-31 -2 37 0
22 16 -10 0
-36 18 -4 0
6 28 36 0
-13 16 17 0
-11 9 12 0
-21 -26 20 0
30 13 -9 0
19 5 -4 0
2 12 -31 0
-23 6 -19 0
-10 34 -39 0
-32 -29 -16 0
-26 -2 37 0
25 -24 39 0
-7 -14 30 0
-1 -10 -32 0
-28 -40 38 0
23 -24 -39 0
-18 10 20 0
-29 33 2 0
-38 4 -40 0
21 -33 -36 0
-10 21 -34 0
2 18 -40 0
6 -21 -7 0
34 -32 2 0
-26 -24 -38 0
19 18 2 0
-36 -22 33 0
-13 -24 -39 0
-5 25 -36 0
-26 32 -15 0
34 -37 24 0
3 39 -6 0
11 17 -5 0
-38 -18 -25 0
-18 -9 26 0
-38 -6 4 0
11 13 2 0
-38 23 31 0
29 -39 30 0
28 -3 25 0
14 4 39 0
-40 -22 13 0
