p cnf 40 170
37 -23 36 0
-39 -36 -13 0
40 16 -4 0
-13 2 -9 0
-26 -19 -34 0
-8 2 26 0
40 -16 -10 0
9 15 -22 0
-36 25 -1 0
-25 40 11 0
11 18 -15 0
29 -2 -15 0
-24 -36 30 0
-32 40 -19 0
21 -34 -23 0
20 -40 -13 0
23 -18 -25 0
-2 -39 11 0
-35 32 -6 0
-20 35 -8 0
-11 -16 31 0
-2 22 -29 0
-33 -32 -11 0
-2 -36 16 0
-19 30 13 0
-25 -29 1 0
-1 -38 -39 0
-20 9 38 0
-34 25 -11 0
10 4 -39 0
-25 4 -26 0
28 -3 2 0
28 -26 -39 0
-11 28 -6 0
-26 37 24 0
13 -10 -15 0
-1 -4 21 0
25 29 28 0
-11 19 -18 0
-32 -18 -8 0
-3 7 21 0
-20 -29 -19 0
11 -35 1 0
34 -21 -25 0
-18 -27 -1 0
23 -19 -37 0
12 -26 -20 0
-1 -37 -30 0
26 -34 -27 0
-21 -27 -5 0
4 11 27 0
-32 -31 15 0
29 -11 26 0
-22 -25 39 0
25 -37 28 0
-33 -1 -26 0
-28 -3 -36 0
23 30 25 0
-40 -22 -4 0
-25 -31 -12 0
-18 -33 -24 0
19 4 17 0
-11 -7 -29 0
18 7 -31 0
-17 9 7 0
31 -25 17 0
-40 -13 -2 0
-24 -37 15 0
-10 -17 5 0
-27 -3 26 0
16 21 26 0
-13 -28 19 0
-4 16 -3 0
2 -7 39 0
-12 14 28 0
-40 -18 -38 0
-26 -35 -32 0
4 28 12 0
-34 -1 -25 0
29 19 -34 0
31 35 30 0
23 17 4 0
-20 33 -18 0
-5 -17 33 0
3 14 28 0
25 6 5 0
-20 -30 -18 0
-22 -4 -14 0
30 17 -31 0
-16 19 -18 0
-19 -20 26 0
-29 6 -30 0
38 4 37 0
34 -24 35 0
36 -31 -15 0
17 -30 31 0
-35 -14 -1 0
36 -18 -38 0
-40 10 31 0
38 8 -22 0
20 31 -26 0
-17 40 -24 0
-13 -35 -1 0
-23 20 -27 0
-21 -36 -27 0
-22 -23 -2 0
-13 -10 8 0
27 16 9 0
-38 -32 36 0
-23 -11 28 0
29 5 38 0
20 -9 -17 0
35 -2 34 0
2 -40 -31 0
17 26 -9 0
-12 11 21 0
-30 -18 -33 0
8 -7 -3 0
-8 33 20 0
-22 21 13 0
-37 35 -24 0
22 24 36 0
-7 1 22 0
7 8 17 0
-2 -13 11 0
6 -17 -31 0
-21 -12 -11 0
-16 -10 28 0
-34 15 -39 0
-14 36 30 0
-14 -9 11 0
21 -29 -23 0
-8 16 6 0
-24 22 16 0
12 -40 -15 0
-11 -35 13 0
12 -19 -10 0
24 -3 23 0
-14 -22 19 0
39 -38 -7 0
-30 4 31 0
-9 21 14 0
5 -14 -17 0
-37 35 -10 0
-37 -4 -27 0
13 -23 11 0
15 11 -13 0
31 4 -13 0
-6 -35 17 0
11 4 33 0
21 -9 -31 0
-9 -36 22 0
5 24 1 0
-30 -13 -25 0
22 -8 -11 0
-11 2 31 0
-31 20 -35 0
22 -3 27 0
8 12 15 0
-7 1 -12 0
34 -38 11 0
-32 20 15 0
-7 9 12 0
19 -20 -1 0
7 -36 -9 0
38 -5 6 0
-35 -25 18 0
-26 -18 -33 0
-13 36 22 0
-14 8 -11 0
