p cnf 50 213
-35 49 18 0
-11 -45 19 0
16 -2 -18 0
-33 -31 8 0
-21 -40 -20 0
34 -23 26 0
41 -42 -16 0
40 -13 -19 0
46 5 25 0
-44 14 -9 0
-39 6 -17 0
29 -7 28 0
24 45 19 0
-18 -38 13 0
43 -11 2 0
37 33 32 0
6 41 24 0
-22 35 -5 0
-29 -33 28 0
42 12 26 0
4 -22 -12 0
15 48 -1 0
14 -41 13 0
36 -29 -20 0
42 4 11 0
-19 -22 -18 0
21 -38 7 0
-2 -46 29 0
49 -38 8 0
-40 33 50 0
-8 48 -35 0
32 -12 -9 0
-24 -34 15 0
28 20 -44 0
-19 -48 22 0
-8 43 18 0
-38 48 13 0
8 -37 -34 0
19 -10 -26 0
17 -2 -16 0
10 -19 2 0
23 -11 35 0
4 -23 -16 0
14 40 37 0
-32 -6 -44 0
4 29 -25 0
-21 -9 47 0
-9 39 15 0
-29 47 -10 0
-34 -30 -21 0
-24 -33 -30 0
-12 19 43 0
35 26 -14 0
-30 -5 -21 0
-44 11 13 0
20 -12 -50 0
13 -44 -26 0
-18 41 15 0
-46 20 -25 0
40 -43 23 0
-42 1 29 0
7 4 35 0
-24 7 -40 0
48 -14 19 0
-3 -1 -6 0
27 3 -34 0
24 17 -28 0
9 -2 10 0
48 20 -1 0
-22 -44 -30 0
-45 3 -9 0
-5 45 10 0
-8 -24 -47 0
28 3 39 0
8 -32 46 0
-46 22 2 0
34 29 19 0
-33 -11 -25 0
26 -1 -25 0
-42 -6 -8 0
-41 20 25 0
36 44 6 0
13 9 10 0
10 45 30 0
-45 -33 -2 0
27 26 -6 0
-44 4 -47 0
23 29 -10 0
-33 24 -48 0
-50 40 -16 0
-20 -8 24 0
-35 -9 -33 0
-14 -17 -50 0
-45 -2 5 0
2 -14 29 0
24 49 -20 0
-12 16 39 0
-48 -7 -19 0
-13 37 -40 0
3 40 12 0
-26 -24 -5 0
-11 -13 -42 0
40 -38 -23 0
-7 -1 -9 0
-28 -31 13 0
-21 -40 38 0
-49 -3 31 0
48 18 34 0
21 -10 -40 0
36 8 35 0
-20 -49 -4 0
-8 -27 -28 0
-6 36 9 0
20 26 -35 0
21 22 -8 0
31 37 34 0
-42 -10 -46 0
4 -23 -35 0
21 5 22 0
32 -21 -48 0
37 -49 31 0
33 5 -2 0
23 -48 45 0
-30 -5 -16 0
39 18 -9 0
15 45 -28 0
-38 -36 14 0
44 24 30 0
-41 6 -29 0
10 -3 5 0
38 14 -15 0
46 -5 -34 0
-36 -13 -34 0
-39 -7 -19 0
6 13 16 0
19 10 3 0
27 28 -20 0
-45 28 -36 0
11 13 1 0
-36 20 47 0
-19 17 -15 0
14 -46 50 0
-23 -41 -2 0
48 18 -28 0
-42 -15 30 0
-18 -35 6 0
-19 37 30 0
14 -41 9 0
-24 -15 -23 0
27 45 -29 0
38 -35 -23 0
-3 40 -33 0
34 -32 -45 0
-18 35 -47 0
-21 13 25 0
4 9 42 0
-46 -13 -48 0
-32 21 38 0
-12 -36 29 0
-31 30 -15 0
-41 -25 -15 0
-29 27 21 0
-6 35 -5 0
41 -8 -45 0
-20 -8 30 0
21 50 1 0
13 8 -40 0
33 23 -38 0
-38 32 -3 0
30 17 -38 0
-26 -17 -47 0
-1 -48 43 0
12 4 48 0
16 22 -26 0
11 -1 -28 0
-4 27 -2 0
-39 -32 28 0
-18 39 -43 0
-22 15 24 0
-10 38 -25 0
-37 -45 -7 0
31 40 -34 0
41 -18 24 0
-2 20 -24 0
29 -45 -26 0
44 -41 -17 0
-30 21 -10 0
-21 31 -9 0
-31 -8 -15 0
-40 -37 16 0
-36 50 39 0
23 36 38 0
1 -47 3 0
28 -2 11 0
-39 -9 46 0
22 -24 36 0
35 -40 24 0
45 -49 -30 0
15 -31 -49 0
34 29 -38 0
-11 6 -25 0
-31 -41 47 0
-9 2 43 0
9 -11 30 0
-28 -49 14 0
-9 48 -19 0
19 26 48 0
19 -36 -47 0
34 -23 -25 0
-17 -3 -24 0
32 37 -42 0
-23 37 -18 0
31 5 2 0
