p cnf 20 85
10 -15 17 0
-7 13 -3 0
-17 -15 -6 0
8 -4 -13 0
17 -7 -19 0
-4 17 5 0
9 16 -1 0
-2 -7 -15 0
5 -8 15 0
10 -13 -11 0
-16 -12 3 0
8 -1 16 0
5 4 -17 0
12 7 19 0
13 -2 5 0
5 17 -7 0
19 -5 -14 0
6 -5 -15 0
10 -16 -3 0
-16 -8 -17 0
15 -9 -19 0
-4 19 -17 0
-1 -8 -5 0
-3 4 9 0
-19 -9 -14 0
15 2 12 0
-13 -1 -10 0
-19 5 8 0
-1 9 14 0
7 10 -4 0
9 -10 3 0
-1 13 15 0
-15 -19 -17 0
9 -4 13 0
16 -9 17 0
-9 6 1 0
4 1 -14 0
-11 -14 5 0
16 15 6 0
-14 12 -4 0
4 1 -17 0
-13 4 -14 0
-10 9 -17 0
5 1 3 0
7 8 -12 0
-15 -13 -1 0
-11 7 -10 0
-4 -18 -10 0
-6 15 20 0
6 -15 -1 0
4 -10 3 0
13 -8 15 0
-1 19 14 0
17 11 16 0
-9 6 19 0
1 -12 -16 0
-4 -15 17 0
-20 -11 18 0
14 -15 -19 0
19 -7 -3 0
17 -18 -13 0
14 1 -18 0
7 10 -14 0
2 3 12 0
8 -10 16 0
10 16 5 0
19 10 16 0
-19 6 12 0
-15 10 -3 0
-13 -1 11 0
-3 -4 -6 0
1 -17 14 0
-13 -15 10 0
6 4 19 0
10 13 2 0
-3 2 10 0
-18 7 -13 0
-2 3 12 0
-2 -1 -20 0
-16 -3 -5 0
-3 -20 4 0
14 3 -4 0
18 4 -5 0
-3 -17 2 0
12 17 -11 0
