p cnf 50 213
-47 2 8 0
31 8 14 0
-32 -10 -47 0
-48 6 8 0
-39 9 6 0
-8 40 41 0
34 -45 -18 0
-11 -39 43 0
25 16 14 0
13 -31 -9 0
20 -16 36 0
-5 -29 -12 0
-31 34 11 0
-14 44 24 0
38 22 -10 0
4 23 -9 0
-10 15 47 0
24 31 50 0
14 3 1 0
15 -6 23 0
10 35 -41 0
27 11 30 0
40 -37 -35 0
9 7 -50 0
32 33 -47 0
-8 42 -45 0
27 18 10 0
-33 -50 -26 0
-24 28 45 0
-28 -33 37 0
-7 -10 24 0
45 -39 -14 0
-15 -37 -30 0
25 27 -13 0
8 6 28 0
-12 -22 50 0
-17 42 36 0
30 15 16 0
14 47 -22 0
-12 -40 43 0
-18 10 -41 0
9 23 -10 0
-7 15 -14 0
-9 8 -47 0
-18 42 44 0
-7 -39 9 0
-16 -35 -10 0
-9 35 19 0
-48 -50 -38 0
20 -50 -36 0
12 -23 -46 0
13 -14 25 0
-28 -16 2 0
17 -11 7 0
-5 25 23 0
-20 -16 -33 0
-2 -39 -18 0
-20 -15 18 0
-44 -32 -25 0
20 29 -33 0
28 21 -15 0
-7 -15 43 0
6 38 -43 0
19 -47 -44 0
-10 -4 45 0
-18 -28 -47 0
9 -44 6 0
-2 -20 40 0
-12 2 -35 0
14 2 20 0
-45 -46 -22 0
4 15 49 0
-11 28 3 0
45 6 -18 0
36 10 20 0
-49 26 -4 0
17 -27 -12 0
49 -46 -8 0
41 6 -24 0
20 34 -28 0
-42 16 -4 0
14 45 -48 0
23 8 34 0
-25 -34 -44 0
38 30 22 0
-35 -11 -26 0
21 -26 -33 0
-4 -21 42 0
27 -39 -6 0
-10 4 -43 0
46 -45 -31 0
-11 12 33 0
29 -4 -39 0
44 21 23 0
35 -9 46 0
32 -39 43 0
16 -42 48 0
28 -7 -23 0
39 41 -43 0
-48 -30 31 0
45 -44 8 0
-38 9 -2 0
33 20 -17 0
46 22 -19 0
8 4 46 0
32 -20 46 0
37 28 -50 0
35 -49 25 0
7 -18 47 0
-2 20 -30 0
23 49 2 0
47 -42 -41 0
15 -30 -36 0
-25 -40 2 0
11 34 22 0
11 -4 -19 0
26 17 50 0
40 4 -30 0
32 5 -22 0
14 47 -7 0
31 -39 11 0
23 45 -9 0
50 -39 8 0
9 19 49 0
45 21 -26 0
-36 -35 13 0
25 -34 -26 0
5 26 39 0
-36 -9 41 0
-34 35 -41 0
-16 -20 -14 0
50 -28 -32 0
40 19 -17 0
-28 47 22 0
9 -17 -42 0
12 33 11 0
19 -26 -38 0
11 34 -36 0
4 -44 32 0
32 26 -44 0
-9 -39 -23 0
-33 -16 -29 0
12 5 6 0
20 -5 25 0
46 -13 -19 0
24 1 -12 0
31 14 38 0
-28 -39 3 0
10 -21 4 0
-3 -27 -17 0
-49 -42 -11 0
10 24 37 0
-32 -37 25 0
-43 -18 10 0
-10 -1 -38 0
50 -39 -35 0
38 15 -24 0
12 13 -1 0
5 -18 2 0
18 -4 8 0
45 -49 31 0
39 15 42 0
28 19 27 0
-26 32 17 0
32 -46 -48 0
-46 19 -42 0
10 -39 -22 0
-38 -17 -14 0
-20 40 -48 0
15 -8 7 0
25 50 14 0
-40 -50 18 0
42 -2 11 0
-5 46 -6 0
-46 24 -9 0
-15 24 26 0
-49 -7 1 0
-50 -41 -31 0
-15 -12 45 0
-34 -5 -28 0
-19 23 -35 0
-10 19 -40 0
-36 18 -12 0
-35 -9 8 0
11 28 36 0
44 11 22 0
23 20 -3 0
-33 11 24 0
-36 -4 24 0
-16 13 46 0
26 13 32 0
23 1 -35 0
-50 43 16 0
1 16 -40 0
23 -7 24 0
-10 14 -46 0
40 15 -3 0
28 -23 17 0
11 13 -39 0
27 -1 -24 0
-18 -36 31 0
-29 -28 -8 0
32 -50 -40 0
38 -47 33 0
-19 -7 -13 0
10 -49 9 0
31 7 28 0
11 -16 26 0
35 -50 31 0
12 -47 4 0
41 39 47 0
-39 -32 -34 0
-26 -47 -9 0
