p cnf 40 170
8 -36 14 0
-2 23 -9 0
-14 25 18 0
-40 -18 -34 0
-22 -29 -27 0
-7 2 -33 0
33 -28 -13 0
-40 25 -31 0
-35 -6 -11 0
1 30 35 0
-30 17 3 0
-1 21 17 0
38 20 8 0
-32 -1 31 0
-4 -28 -20 0
24 29 10 0
28 -24 -18 0
-2 28 38 0
-11 16 -10 0
16 -23 -31 0
-27 -24 37 0
-29 22 11 0
11 37 -16 0
-30 12 -29 0
-9 -11 8 0
-6 22 34 0
-27 28 10 0
11 -14 40 0
36 1 15 0
16 28 -18 0
2 36 22 0
-24 -19 6 0
-15 -39 1 0
8 17 22 0
38 -1 -24 0
9 1 -34 0
-9 -31 -6 0
10 6 1 0
-33 -36 -3 0
-14 -25 19 0
-26 40 -25 0
21 20 29 0
-13 -32 24 0
2 -32 7 0
7 -24 27 0
-34 2 27 0
-10 -34 16 0
-39 13 -3 0
-29 12 -31 0
10 11 38 0
39 -26 -32 0
-9 22 4 0
-12 -23 20 0
-30 31 17 0
36 33 -35 0
35 27 -39 0
-39 -24 -7 0
-15 -31 -27 0
-38 -13 -30 0
-10 -3 5 0
-10 22 29 0
-10 -13 -16 0
31 23 -25 0
-27 35 -15 0
5 31 24 0
-12 26 30 0
15 -19 8 0
-22 -16 -20 0
-33 -22 11 0
3 19 -1 0
-1 -36 21 0
-4 -7 36 0
13 -27 -2 0
-27 -18 22 0
17 38 36 0
-12 35 7 0
18 28 39 0
2 24 32 0
-22 30 -34 0
-24 10 22 0
-14 19 7 0
2 -28 -38 0
19 28 -15 0
-15 20 -4 0
-3 35 30 0
-37 -17 8 0
5 -35 26 0
-34 14 -11 0
15 25 40 0
-37 7 -24 0
34 39 4 0
37 -34 12 0
-32 -27 29 0
-4 -26 23 0
-7 20 -27 0
-37 13 27 0
-23 37 -3 0
-30 32 -20 0
-14 31 -20 0
-32 10 -4 0
21 32 37 0
-30 -10 17 0
-37 24 29 0
34 20 33 0
-17 -19 10 0
21 -23 -19 0
-30 -17 2 0
25 -4 30 0
-11 39 20 0
7 5 -34 0
33 32 -3 0
12 -1 -22 0
32 -29 34 0
19 -39 27 0
1 -33 -36 0
-27 -17 -25 0
-37 14 -17 0
24 39 18 0
-40 -34 -17 0
-34 33 -20 0
-23 22 -38 0
-10 -33 15 0
-25 24 26 0
-3 40 13 0
-22 -30 -38 0
27 34 13 0
-37 21 26 0
29 -38 -13 0
22 1 -13 0
5 4 26 0
11 17 40 0
19 -8 -39 0
14 21 33 0
-32 13 2 0
31 26 -38 0
-37 34 -13 0
10 -3 -26 0
4 -23 -17 0
-38 -34 -21 0
-35 -19 14 0
-7 -35 24 0
-1 -21 -2 0
36 -13 15 0
-5 40 27 0
15 -33 14 0
-39 32 -20 0
-33 -39 18 0
-18 39 1 0
1 -12 25 0
2 -1 -6 0
-38 -28 -4 0
12 5 3 0
-4 -37 -38 0
33 6 35 0
-18 -4 7 0
33 -11 16 0
-39 33 23 0
4 14 -9 0
38 37 20 0
32 -36 -33 0
36 14 11 0
-37 29 18 0
6 -11 40 0
-38 -18 -30 0
-28 -29 6 0
21 -4 14 0
18 -29 38 0
-21 37 5 0
-1 -25 -31 0
-27 3 18 0
