p cnf 20 85
11 3 5 0
-12 9 8 0
-9 -16 -4 0
9 -12 11 0
11 -6 10 0
-11 9 -20 0
15 6 12 0
-1 15 -6 0
4 2 -13 0
11 1 -19 0
6 -15 4 0
-4 5 2 0
-17 19 10 0
19 -11 -9 0
-17 8 15 0
-2 -17 -7 0
-18 11 5 0
14 -6 -15 0
12 -10 11 0
-1 2 -4 0
-1 -2 -18 0
-5 20 18 0
1 -12 -10 0
19 1 -12 0
-19 12 -20 0
-12 -19 -9 0
-20 5 -17 0
20 6 12 0
15 6 -13 0
-11 5 9 0
3 12 -19 0
-14 7 19 0
19 -8 -1 0
-15 14 4 0
-20 -7 14 0
20 16 19 0
-2 10 -6 0
17 -15 -6 0
9 1 15 0
-17 8 -10 0
-9 7 12 0
8 -1 20 0
-19 18 7 0
-12 16 5 0
12 10 5 0
-13 -8 15 0
-15 2 14 0
-4 -10 -9 0
10 -5 -6 0
2 4 5 0
6 -2 9 0
9 -11 -18 0
1 11 -14 0
-4 14 19 0
-5 2 1 0
1 -12 -11 0
-20 18 7 0
-5 2 -3 0
14 -19 4 0
3 -4 -5 0
-7 -13 -14 0
-17 -9 14 0
-11 9 -17 0
19 2 -4 0
2 -4 11 0
-4 -8 10 0
-16 -5 -11 0
5 2 -19 0
-14 8 -7 0
10 -4 15 0
9 -16 -7 0
19 13 12 0
6 -5 -18 0
-20 12 9 0
7 13 -8 0
-12 -2 -14 0
2 14 -10 0
18 13 -4 0
11 -2 -19 0
-17 -4 18 0
-9 -4 -19 0
18 8 19 0
7 -2 -17 0
-5 -13 -15 0
4 5 14 0
