p cnf 30 128
-10 25 -14 0
-17 -28 10 0
4 14 24 0
24 -20 27 0
-29 1 -2 0
-14 11 21 0
23 12 -5 0
9 11 -26 0
-14 -19 -13 0
-29 9 -15 0
-9 2 1 0
22 -21 4 0
-5 16 -7 0
4 9 16 0
-26 -24 -12 0
-5 13 -9 0
23 -30 16 0
9 -30 29 0
7 4 10 0
-15 -24 -4 0
15 7 -19 0
5 26 1 0
22 25 -19 0
22 -1 -19 0
-15 29 28 0
25 3 -2 0
9 5 -19 0
21 28 12 0
16 -15 -11 0
-4 3 29 0
3 -29 -19 0
5 25 -26 0
-30 -23 11 0
13 -6 4 0
4 -23 -5 0
-10 -26 9 0
-16 23 18 0
19 4 10 0
-10 3 15 0
-1 -8 -26 0
11 -14 -5 0
27 26 4 0
24 5 14 0
14 19 26 0
-8 23 21 0
-5 -4 19 0
25 -30 10 0
-4 1 -7 0
9 20 -21 0
-6 -9 22 0
-6 -27 -2 0
-29 4 -24 0
10 7 -17 0
-28 25 8 0
7 27 -2 0
-14 -20 -27 0
11 20 6 0
-22 14 10 0
-19 14 -17 0
1 -22 19 0
11 25 30 0
-25 -19 -28 0
-23 10 -27 0
-22 -3 4 0
-14 -9 -3 0
22 -8 3 0
-3 7 -26 0
-28 26 -17 0
-15 -20 -12 0
-10 16 -29 0
14 -27 30 0
-2 -18 26 0
-1 -25 -5 0
23 29 -6 0
-3 -14 7 0
20 -14 10 0
10 23 -29 0
-30 28 -8 0
-13 -10 -25 0
-11 22 -29 0
-27 -16 -5 0
12 -15 -30 0
25 -6 -27 0
-20 -2 -13 0
-22 19 -13 0
-25 13 17 0
2 27 -25 0
-16 5 28 0
-11 -22 -2 0
3 -14 -25 0
11 8 -26 0
-8 13 27 0
-27 -1 -15 0
-8 -10 20 0
25 -20 -13 0
-30 2 -3 0
3 7 -13 0
25 20 -21 0
22 -29 11 0
-2 22 28 0
1 -16 -19 0
-25 -24 30 0
22 -15 -27 0
-9 -27 -6 0
3 9 -15 0
-5 -7 -12 0
-9 28 6 0
-12 29 19 0
11 -13 12 0
-22 -23 -16 0
9 -28 29 0
29 -10 -30 0
26 -5 30 0
29 -10 20 0
4 19 -12 0
-24 28 -17 0
-17 6 11 0
8 28 26 0
28 11 22 0
-27 8 -21 0
-11 27 -15 0
-9 7 6 0
-18 -1 11 0
-16 4 -20 0
9 2 1 0
-30 1 -17 0
15 22 -30 0
-13 1 -7 0
