p cnf 20 85
-3 12 -10 0
17 12 6 0
16 13 1 0
2 -18 19 0
13 4 -20 0
1 9 -2 0
17 20 -11 0
-4 19 -11 0
-5 -11 1 0
12 10 19 0
-20 -14 -6 0
-15 5 11 0
20 7 -3 0
-17 -6 3 0
14 -9 10 0
9 20 -18 0
-14 5 1 0
15 -2 -18 0
-12 17 6 0
1 -8 19 0
-3 19 -15 0
-7 6 15 0
9 20 -14 0
-10 1 -16 0
13 -20 14 0
12 19 -5 0
-13 -16 -17 0
-19 -12 -20 0
-4 18 -16 0
11 13 -5 0
20 -5 -13 0
-5 -20 16 0
-6 -12 3 0
7 9 11 0
-5 -15 -18 0
-17 -2 11 0
-20 8 -15 0
-16 18 -2 0
3 4 14 0
-13 -17 12 0
-1 6 -5 0
2 14 -20 0
-20 6 -12 0
15 12 9 0
6 -1 15 0
-3 -12 4 0
-1 6 13 0
-18 -16 19 0
-9 -1 17 0
-12 -4 16 0
2 -1 -13 0
-6 20 -19 0
-16 -13 2 0
11 -6 -8 0
-14 15 -12 0
6 -19 -1 0
-1 -20 -11 0
-4 19 -5 0
-14 -20 11 0
17 -7 -18 0
-14 19 12 0
-8 16 -13 0
16 13 3 0
-18 1 -16 0
-20 -11 -13 0
13 1 -14 0
-15 20 6 0
-14 6 10 0
-5 -12 16 0
6 19 -11 0
-10 18 14 0
-13 -7 -12 0
-20 12 6 0
15 -3 -19 0
-5 -7 -6 0
16 -12 10 0
9 -6 11 0
18 10 8 0
16 17 -10 0
-5 -20 -1 0
-9 -6 -13 0
4 -12 16 0
12 -19 -9 0
-18 -20 -3 0
17 14 7 0
