p cnf 20 85
-20 7 -18 0
-16 19 5 0
19 16 -15 0
-3 10 18 0
8 17 14 0
-11 20 7 0
7 -4 8 0
-7 14 15 0
13 -3 -16 0
4 -17 9 0
-13 -7 1 0
14 -11 20 0
-16 -19 -1 0
-20 18 8 0
5 -17 -10 0
-9 -5 -7 0
1 -15 9 0
-15 -6 2 0
-12 3 -11 0
9 13 2 0
-6 -7 4 0
-11 9 8 0
-3 19 -6 0
16 -12 -9 0
17 -6 19 0
-20 -18 -2 0
19 12 9 0
-17 -11 12 0
-18 -4 19 0
14 7 18 0
-9 17 -1 0
-19 -14 15 0
5 -13 6 0
-14 -9 10 0
-18 -11 7 0
-17 -14 5 0
-18 7 9 0
-13 5 -2 0
-15 10 1 0
-18 1 6 0
8 -9 -13 0
11 7 2 0
-11 -7 17 0
-8 -7 9 0
-8 2 3 0
14 1 -5 0
19 7 -10 0
20 12 -3 0
-20 19 2 0
-7 -10 -19 0
20 -14 7 0
18 -13 -17 0
-1 17 15 0
6 -3 11 0
14 2 6 0
14 -19 1 0
10 15 -18 0
10 7 14 0
-5 16 -12 0
19 -5 -17 0
1 18 19 0
6 1 14 0
-2 20 -19 0
-2 -13 16 0
-1 -6 -16 0
-9 -5 -15 0
-8 18 1 0
-11 -5 -3 0
-8 13 9 0
-4 18 5 0
-17 7 -18 0
-6 -20 12 0
14 -20 -17 0
-12 -13 4 0
18 -1 -9 0
-2 20 -1 0
3 -10 -9 0
14 -8 -9 0
18 4 12 0
2 3 14 0
1 -5 -16 0
-3 -14 -12 0
-20 8 18 0
2 -12 7 0
-17 4 15 0
