p cnf 40 170
-32 18 -16 0
-33 -8 -17 0
-16 -31 10 0
18 -23 -14 0
-8 21 -24 0
-4 34 -13 0
4 -35 14 0
33 39 -5 0
39 -36 33 0
-30 -17 -18 0
31 40 -6 0
15 -38 2 0
-12 -22 38 0
-19 25 -36 0
-20 7 23 0
9 13 31 0
37 15 -7 0
36 -5 15 0
-34 33 21 0
-8 22 -1 0
26 -17 32 0
-38 1 -10 0
-7 28 13 0
19 -21 -17 0
-23 -35 -6 0
11 -20 14 0
-21 -16 -30 0
8 24 -12 0
5 -6 10 0
3 2 -7 0
23 14 5 0
-9 -7 -26 0
17 1 -8 0
17 9 38 0
-30 28 17 0
4 -19 -30 0
8 31 23 0
34 -25 19 0
31 -5 16 0
-23 -19 21 0
21 -11 2 0
-33 28 23 0
-32 -19 34 0
3 -13 -7 0
40 -24 22 0
-40 -24 37 0
-23 -18 -33 0
-16 10 -2 0
-20 32 5 0
38 -5 39 0
39 -6 -9 0
39 -35 34 0
1 -31 20 0
-38 -31 -27 0
8 33 18 0
-33 -27 -30 0
-33 -24 32 0
-4 -23 21 0
8 28 -15 0
-35 -32 18 0
29 -27 -18 0
-25 -7 -36 0
35 9 -32 0
-34 31 -11 0
7 34 20 0
-13 5 39 0
2 11 5 0
-13 38 -19 0
-9 -12 7 0
13 -18 7 0
21 7 -22 0
21 6 22 0
30 -17 3 0
39 27 34 0
12 -39 -16 0
29 25 -13 0
-12 -9 4 0
-14 37 28 0
-17 3 -22 0
35 5 -33 0
-13 -34 -23 0
25 7 -38 0
1 -12 4 0
-6 -18 -24 0
7 -14 21 0
-40 -3 5 0
-4 39 37 0
-9 31 -20 0
-12 15 -28 0
-14 15 -17 0
-11 9 -17 0
19 36 30 0
33 26 -6 0
10 8 -36 0
-11 -12 16 0
12 35 6 0
-22 3 -12 0
2 -17 -38 0
3 -27 -37 0
4 -32 14 0
-17 -1 -16 0
-1 37 20 0
22 24 25 0
34 40 -28 0
-11 5 -3 0
-16 17 -5 0
39 13 10 0
-21 20 -16 0
-5 -18 38 0
39 6 12 0
-18 26 29 0
12 -8 37 0
-5 10 -29 0
-3 -30 18 0
-33 21 29 0
8 -18 37 0
26 -39 -25 0
18 -29 8 0
40 -2 38 0
-10 -12 -40 0
-36 24 -18 0
3 11 -23 0
4 -7 32 0
-13 24 -17 0
-11 15 -29 0
29 22 -12 0
-30 -13 -6 0
-32 29 -15 0
-40 12 39 0
-3 -23 -35 0
9 38 4 0
33 -24 26 0
-24 20 10 0
-37 12 -1 0
35 11 -25 0
6 5 -37 0
-7 -19 -40 0
1 -17 -8 0
23 40 -13 0
-8 -6 4 0
19 -31 11 0
-14 27 12 0
11 -28 -3 0
13 24 -39 0
39 -11 -30 0
38 19 -17 0
-28 20 38 0
-23 15 39 0
-34 -23 -13 0
8 -31 10 0
10 38 -35 0
26 33 -29 0
13 12 -33 0
-9 -33 -38 0
-32 -8 24 0
9 -6 32 0
-12 9 25 0
-7 23 5 0
20 -12 7 0
27 -15 -25 0
25 18 9 0
34 30 -23 0
-22 -10 27 0
3 -37 11 0
14 35 -12 0
14 -18 -8 0
1 3 -13 0
17 37 -10 0
23 25 -18 0
-26 16 40 0
