p cnf 20 85
3 13 -9 0
-13 -1 15 0
11 10 -5 0
20 -11 5 0
-6 19 20 0
18 -5 14 0
-19 -6 -3 0
-7 16 20 0
9 -12 20 0
15 -14 8 0
11 -7 -12 0
9 7 -4 0
10 -9 -6 0
-6 -13 -14 0
18 3 -7 0
6 20 -2 0
-18 -2 -16 0
20 -7 6 0
-19 20 -3 0
-20 11 -10 0
-19 14 12 0
-12 4 -10 0
1 -13 20 0
-19 -15 10 0
-18 -3 -1 0
-13 -20 -6 0
2 -13 19 0
-1 11 -14 0
-2 -14 16 0
-15 -6 -7 0
4 10 -11 0
6 -19 14 0
-4 19 -16 0
14 13 -5 0
-20 17 8 0
-8 -19 -3 0
-10 -1 -11 0
-18 14 -9 0
2 17 7 0
-2 8 -9 0
9 -16 12 0
-4 12 -10 0
8 -7 19 0
-6 -12 13 0
4 -9 -7 0
17 -14 -18 0
-4 10 19 0
-8 18 -20 0
12 -14 -9 0
-15 -12 17 0
13 16 -11 0
-10 2 -14 0
-3 4 -13 0
-14 -19 10 0
-14 -17 -12 0
-4 20 18 0
16 -17 -8 0
11 -6 -1 0
-17 -11 8 0
17 -16 -10 0
2 -13 9 0
-9 -3 -15 0
15 9 -11 0
11 20 8 0
13 7 1 0
-20 1 -18 0
-14 -5 3 0
-7 -12 8 0
-11 10 1 0
13 -7 -6 0
-1 6 -2 0
8 20 16 0
-18 -11 -16 0
-7 -8 -4 0
20 18 3 0
13 -1 -17 0
20 10 -18 0
15 19 8 0
4 11 9 0
4 -19 10 0
11 -1 -4 0
-19 1 20 0
4 -17 1 0
-17 10 9 0
-16 10 -11 0
