p cnf 40 170
33 -8 -40 0
-40 16 5 0
3 -24 -11 0
13 31 -34 0
32 34 -25 0
-40 19 39 0
-2 -4 -7 0
-2 -19 -12 0
30 4 -24 0
33 23 -25 0
16 -37 -5 0
17 7 26 0
-37 -24 -7 0
-32 -1 27 0
-23 -3 21 0
11 33 -14 0
16 -34 40 0
18 -35 -21 0
30 -22 27 0
36 7 16 0
-38 27 -22 0
-24 16 -32 0
10 -21 -6 0
30 -5 4 0
-35 34 -18 0
-6 35 1 0
11 -34 10 0
8 -37 -30 0
-19 -11 34 0
10 -13 -22 0
-24 27 8 0
30 -36 39 0
3 -30 24 0
-8 -27 -7 0
13 12 16 0
-1 30 4 0
2 6 9 0
-11 39 33 0
-20 10 -19 0
15 -32 2 0
26 -2 -37 0
-26 6 8 0
-10 18 -32 0
-19 -26 -33 0
30 24 -14 0
-6 -24 35 0
-30 -15 32 0
-24 -25 -29 0
25 28 -20 0
-18 24 -14 0
-5 -17 13 0
34 -23 -39 0
18 -2 16 0
-6 36 16 0
-16 -11 23 0
11 25 36 0
26 -11 29 0
-22 -12 39 0
-17 16 8 0
-15 -16 40 0
-36 4 25 0
16 -6 -23 0
-36 -30 -6 0
36 21 34 0
10 5 -20 0
36 9 39 0
33 31 -21 0
-29 27 -38 0
-39 -2 -13 0
36 -30 -33 0
38 -27 25 0
39 7 13 0
1 14 4 0
23 10 -28 0
-12 27 -40 0
-20 -40 9 0
13 -5 28 0
35 -40 -33 0
31 -33 37 0
-11 35 33 0
1 35 19 0
6 16 -17 0
-11 38 15 0
-27 29 -10 0
-22 -7 14 0
-4 -16 -34 0
-11 -1 32 0
-20 13 -23 0
-22 39 6 0
-17 31 12 0
7 5 -30 0
20 22 6 0
-25 4 -11 0
19 -4 27 0
17 -14 11 0
-27 4 1 0
16 22 17 0
10 -8 36 0
-20 -33 -7 0
-22 39 24 0
-8 -11 -30 0
33 -11 32 0
-39 -12 31 0
10 34 -24 0
-9 23 31 0
-34 -3 40 0
11 -33 37 0
-5 -18 15 0
-12 -32 -15 0
-18 3 -36 0
-29 34 14 0
-13 16 11 0
38 -30 -20 0
-37 1 35 0
30 4 -27 0
-13 -29 3 0
32 38 -23 0
15 37 35 0
18 26 9 0
-19 -16 -20 0
-2 -23 25 0
-13 -1 -7 0
-4 -27 -17 0
39 15 23 0
29 -24 9 0
-33 -1 31 0
-7 -35 3 0
-22 36 -23 0
40 11 -36 0
24 -40 -8 0
-29 39 -32 0
-18 -39 19 0
35 -22 18 0
-37 -13 32 0
-16 -31 23 0
-31 9 -22 0
-22 14 8 0
-10 -31 -17 0
10 -16 -40 0
29 -19 31 0
-16 -25 6 0
-22 -6 1 0
19 -27 -13 0
35 -11 8 0
23 -13 3 0
30 -11 27 0
-9 11 25 0
38 -7 26 0
-12 3 33 0
-37 -32 31 0
-35 40 38 0
-29 11 -16 0
-22 -29 -10 0
27 9 -4 0
-11 -24 -12 0
-39 -10 19 0
-13 1 -28 0
-14 4 -36 0
-21 -37 23 0
37 33 16 0
30 1 37 0
36 -16 -4 0
-19 40 -31 0
-8 -16 32 0
13 21 -27 0
-29 -10 36 0
2 -32 -7 0
-4 -14 3 0
-38 26 -30 0
37 -14 -29 0
