p cnf 30 128
-2 18 -11 0
1 -11 27 0
-27 -10 -19 0
-16 4 23 0
19 10 -1 0
1 -20 -29 0
3 -2 -9 0
-27 3 8 0
20 -27 26 0
24 -27 -13 0
-12 27 -11 0
-13 2 -26 0
-28 10 5 0
-8 1 -2 0
27 8 20 0
-17 23 -25 0
9 2 28 0
8 23 10 0
-29 -13 16 0
-7 21 6 0
21 17 -15 0
25 -18 -15 0
-20 -16 -10 0
-30 3 22 0
17 4 3 0
15 29 2 0
-20 -16 5 0
-19 8 -22 0
13 -11 14 0
-15 -5 -14 0
12 -15 27 0
9 -20 -5 0
-17 -10 9 0
4 -18 16 0
-17 -4 1 0
-18 29 28 0
-8 10 7 0
-10 -13 -9 0
-30 -19 -27 0
18 -24 -5 0
19 16 -2 0
22 -23 -30 0
-27 8 5 0
10 -15 -7 0
-15 -16 26 0
13 9 7 0
22 5 23 0
-14 24 -7 0
-22 16 -19 0
-1 -20 -9 0
9 11 -1 0
13 -14 -24 0
6 28 20 0
-27 -15 18 0
-15 -20 28 0
18 8 21 0
25 3 -29 0
4 5 -22 0
-26 30 8 0
-22 -17 -8 0
18 -16 27 0
16 7 27 0
8 4 17 0
-11 -3 4 0
18 -6 2 0
-5 -1 -8 0
11 12 25 0
19 11 -3 0
23 25 16 0
-4 -24 22 0
-26 -29 -8 0
22 10 14 0
-16 2 25 0
14 -26 -28 0
-3 -2 11 0
-19 25 -9 0
27 7 -5 0
3 9 24 0
10 21 -29 0
21 -28 1 0
-3 5 8 0
19 -2 15 0
-3 20 28 0
-18 -11 8 0
-20 -13 -23 0
21 -26 -29 0
-22 -2 -24 0
-8 -19 -4 0
8 5 7 0
-3 12 19 0
-4 -17 -11 0
-10 -23 2 0
12 10 -6 0
-21 -24 8 0
6 -16 -19 0
-23 -29 30 0
5 -7 -29 0
-17 9 26 0
14 -4 24 0
18 30 23 0
-16 -23 10 0
-24 -5 4 0
-8 -4 21 0
14 10 26 0
-7 -22 27 0
-24 -6 10 0
29 -14 -18 0
-10 3 -5 0
-5 -21 -3 0
4 -5 13 0
-4 -7 -20 0
1 19 -15 0
30 28 -17 0
-6 4 -18 0
1 -20 -2 0
-9 15 16 0
29 -15 10 0
-4 -14 13 0
-27 -21 -19 0
1 -23 -14 0
-11 14 4 0
28 10 9 0
-19 -5 -21 0
6 2 11 0
-26 7 13 0
22 15 -19 0
-21 6 10 0
-5 21 19 0
