p cnf 30 128
22 17 21 0
-9 -27 26 0
25 11 -10 0
14 29 22 0
-7 24 -4 0
-2 25 -8 0
-14 3 29 0
16 -6 -19 0
-6 -24 3 0
18 -7 2 0
-30 24 -23 0
25 23 24 0
1 -10 8 0
21 -2 13 0
11 -2 -16 0
-4 -7 15 0
17 -30 -20 0
-9 30 16 0
17 -10 1 0
-29 19 -17 0
20 15 24 0
24 29 -12 0
-29 -20 25 0
-28 1 15 0
10 13 -8 0
19 -15 -29 0
15 25 18 0
1 13 -4 0
30 20 -27 0
17 -18 1 0
-1 -26 25 0
-15 -18 2 0
26 -13 14 0
1 8 6 0
30 22 -7 0
-7 -24 23 0
8 -26 -4 0
16 -9 -25 0
8 15 -14 0
13 -28 4 0
-25 -14 -23 0
-23 -12 14 0
-10 -22 -14 0
-27 -26 25 0
-28 27 -15 0
9 -5 -22 0
9 -2 -10 0
13 14 18 0
-23 4 -19 0
-6 18 -13 0
-14 -30 29 0
12 -30 -18 0
23 2 24 0
24 9 -25 0
-11 13 -7 0
28 22 -19 0
30 -20 8 0
3 -30 13 0
28 29 -16 0
29 -23 6 0
-30 19 8 0
-16 -23 30 0
18 -12 -3 0
20 -27 22 0
-9 19 -12 0
-18 26 -17 0
13 -23 24 0
22 1 17 0
-7 -2 23 0
10 17 13 0
13 4 28 0
-16 -27 24 0
-13 28 -18 0
11 -26 13 0
-15 -26 -8 0
17 7 -16 0
-4 7 -25 0
28 17 -15 0
3 30 10 0
4 16 27 0
19 17 -3 0
29 -9 -2 0
8 -15 5 0
-15 9 -12 0
-30 -10 25 0
-13 -23 18 0
-13 18 1 0
30 13 -26 0
29 23 24 0
-19 -11 6 0
6 -2 -4 0
-19 26 -16 0
-9 27 -28 0
-18 -5 8 0
2 9 26 0
12 28 -23 0
-10 26 -20 0
-22 -30 -4 0
15 11 16 0
-15 19 11 0
2 -5 24 0
-18 19 9 0
12 23 -20 0
18 28 -4 0
19 -7 -9 0
-14 19 -21 0
19 9 1 0
-12 -28 10 0
-13 7 -23 0
-5 -15 -11 0
24 30 9 0
-27 -18 -15 0
-20 14 11 0
27 26 -17 0
2 -15 29 0
7 -16 11 0
23 19 16 0
15 -19 -21 0
18 5 20 0
3 -6 -7 0
27 18 -29 0
17 3 -24 0
17 -22 -29 0
22 -18 -21 0
-23 -14 1 0
4 1 -18 0
-26 -1 -2 0
2 21 -9 0
