p cnf 30 128
26 -3 22 0
26 -23 -5 0
-7 -4 6 0
-28 3 -17 0
-17 -7 9 0
8 -3 19 0
-22 -6 29 0
25 -24 23 0
24 -5 20 0
3 7 16 0
-9 6 24 0
-2 3 20 0
28 -14 -27 0
28 22 2 0
12 -17 20 0
5 -4 24 0
-30 12 -13 0
27 13 17 0
-29 -6 -19 0
-16 3 11 0
-6 14 -21 0
16 23 5 0
-22 -20 -17 0
3 23 27 0
13 -20 17 0
-5 -6 9 0
25 -27 4 0
11 -5 19 0
27 13 10 0
-13 15 4 0
-15 -6 -25 0
21 -27 -23 0
19 -21 -18 0
-18 -14 16 0
-10 17 4 0
14 2 -29 0
27 18 16 0
-14 -18 -9 0
8 -7 9 0
-8 17 -3 0
6 -10 -13 0
22 -29 23 0
5 13 22 0
-11 -24 28 0
-29 11 20 0
11 -26 28 0
29 3 -21 0
1 -23 17 0
1 -22 -26 0
20 8 17 0
26 -3 -17 0
2 -26 3 0
-5 -12 26 0
18 11 14 0
-22 4 17 0
-22 4 12 0
29 -17 -13 0
6 14 -30 0
-2 24 -20 0
26 15 10 0
-21 4 -12 0
23 15 26 0
-7 -1 -12 0
26 -13 -28 0
14 26 -20 0
19 -29 14 0
12 21 20 0
-24 25 -26 0
-2 23 26 0
-17 8 18 0
-8 -25 4 0
-25 -26 11 0
-6 13 15 0
12 21 -10 0
14 -16 -24 0
14 10 20 0
22 -11 24 0
-10 -19 15 0
3 -15 -5 0
12 -17 -23 0
-22 23 -14 0
29 -21 19 0
-28 -11 4 0
2 -13 -23 0
28 -18 -4 0
21 -25 24 0
25 21 -1 0
1 15 -10 0
-14 -25 -29 0
-20 -1 5 0
29 -14 -23 0
-21 -8 -11 0
18 -26 8 0
19 17 8 0
-15 4 -19 0
-12 -26 10 0
6 -4 8 0
-18 8 -19 0
-28 -22 -25 0
29 30 11 0
-16 -11 12 0
-3 18 11 0
2 -15 30 0
15 -26 -8 0
-25 -27 -18 0
20 -6 14 0
-20 22 -4 0
-1 29 -5 0
-7 -14 -5 0
-18 -23 -1 0
-18 25 1 0
23 20 1 0
26 -1 25 0
-28 7 -3 0
11 -26 27 0
6 13 -30 0
30 -14 18 0
27 -24 3 0
10 24 13 0
-26 -30 16 0
8 27 10 0
-9 -10 -5 0
20 16 -7 0
20 -22 -18 0
-23 -24 -20 0
18 8 -5 0
21 7 9 0
-5 22 -9 0
