p cnf 30 128
29 -27 7 0
23 13 14 0
5 15 -30 0
-22 -19 -18 0
-13 -6 16 0
-24 -22 -13 0
-6 7 4 0
-15 6 -17 0
14 -13 29 0
4 6 8 0
1 9 -6 0
4 28 18 0
-20 10 23 0
-13 1 -10 0
2 -23 28 0
-2 -25 -17 0
22 -14 -11 0
20 -30 -26 0
20 11 -6 0
9 -21 10 0
1 19 30 0
4 28 -30 0
-1 -5 -14 0
8 -13 25 0
25 -24 26 0
-2 26 20 0
6 -14 24 0
-16 3 -21 0
26 11 -25 0
-26 -13 14 0
11 2 -24 0
27 -4 5 0
19 -8 -1 0
17 23 -18 0
29 26 18 0
20 -30 -29 0
30 6 -12 0
-14 4 -18 0
26 -17 27 0
-8 10 -6 0
25 -13 -29 0
-6 -12 3 0
29 11 25 0
-10 -15 1 0
9 22 -29 0
-22 12 8 0
14 -12 20 0
15 -21 6 0
27 26 11 0
30 27 9 0
-14 -29 4 0
-27 -8 -7 0
16 17 11 0
12 16 -15 0
14 -1 -2 0
-14 13 27 0
-5 7 -20 0
27 25 4 0
-21 -10 -8 0
12 -10 -24 0
-11 -4 -2 0
8 -13 3 0
-25 -2 26 0
1 5 11 0
22 23 21 0
-23 -27 -17 0
13 -6 -5 0
25 19 -13 0
22 2 -14 0
13 -7 14 0
-8 -5 -21 0
-12 -3 -24 0
-10 -5 -16 0
11 -20 22 0
25 -21 -19 0
4 -13 8 0
16 14 7 0
-30 1 26 0
-28 -27 -25 0
9 -6 -20 0
-12 -30 10 0
-17 -24 -2 0
-8 30 -5 0
1 -4 -19 0
21 -17 -18 0
-25 29 30 0
-16 2 25 0
-24 -14 -25 0
-17 -7 -16 0
-29 -15 -5 0
28 -9 23 0
19 -24 -11 0
13 -25 -1 0
-2 22 13 0
30 22 19 0
-7 -25 2 0
-25 11 22 0
-11 6 -5 0
29 13 25 0
21 23 -28 0
1 -2 -13 0
-8 -23 -10 0
16 15 26 0
-14 12 3 0
30 26 3 0
24 -18 -10 0
-16 24 29 0
6 11 -10 0
-8 -19 -13 0
-24 -1 -3 0
16 -23 -25 0
14 5 3 0
-27 -22 -21 0
24 -13 -4 0
-14 8 -7 0
-20 7 18 0
-27 3 -12 0
-28 -6 5 0
29 16 -24 0
25 7 3 0
27 13 -4 0
-6 4 25 0
-4 -19 25 0
21 -16 -28 0
27 18 -8 0
-30 -11 -13 0
17 -18 28 0
-15 -1 -5 0
