p cnf 30 128
-11 23 -27 0
11 -13 -14 0
28 29 12 0
-23 -27 -22 0
-26 -13 -27 0
2 -11 -26 0
-26 20 -18 0
6 12 15 0
30 25 -10 0
15 -22 5 0
18 -21 -12 0
-30 29 23 0
22 7 -4 0
-4 -23 15 0
-16 -3 -8 0
-30 21 26 0
1 -10 23 0
-20 2 -12 0
-24 22 14 0
18 -22 21 0
1 -3 -15 0
-17 2 -22 0
14 5 28 0
-1 -28 -18 0
-20 6 -15 0
-1 17 25 0
13 9 -27 0
-25 6 19 0
29 -16 -9 0
2 24 30 0
-8 -20 19 0
-29 7 -23 0
-14 28 30 0
7 3 -20 0
25 26 -22 0
9 14 12 0
27 -25 -14 0
-30 -15 12 0
1 -13 28 0
8 30 -21 0
1 -7 -21 0
-10 -30 -3 0
19 23 25 0
-29 27 -6 0
-25 -5 16 0
27 -15 -24 0
21 28 -27 0
6 25 11 0
15 -16 28 0
7 9 25 0
2 11 -29 0
11 -16 -12 0
27 24 28 0
28 -11 29 0
22 -15 21 0
-18 12 -21 0
19 -16 -17 0
-10 -17 -26 0
-17 13 4 0
-11 -2 15 0
-9 16 -20 0
8 -30 -7 0
25 -9 27 0
5 -3 -26 0
27 -20 7 0
-23 -10 20 0
7 -1 2 0
10 -16 13 0
-17 30 20 0
-12 4 18 0
17 -12 -26 0
-26 3 -5 0
-23 29 21 0
-18 12 -28 0
25 -7 18 0
-22 -14 -19 0
28 -11 14 0
15 6 21 0
-4 27 29 0
15 -5 -18 0
15 6 -26 0
-6 -19 3 0
2 4 26 0
-12 8 30 0
-24 20 19 0
1 -11 18 0
-28 29 -30 0
-30 25 -19 0
-11 27 16 0
-21 27 23 0
-19 29 15 0
19 24 26 0
16 -7 -6 0
-2 -16 -28 0
-6 -17 7 0
-7 -17 29 0
6 -4 14 0
-2 -4 -7 0
-20 3 1 0
-19 17 30 0
-27 19 20 0
25 -5 30 0
-30 -22 7 0
-16 -13 2 0
4 -27 -2 0
-7 -30 -10 0
19 15 -13 0
-9 23 22 0
-14 -11 -20 0
19 -20 16 0
-17 -1 -9 0
27 25 -30 0
-13 -12 -23 0
-11 -1 -20 0
-8 26 12 0
-21 7 26 0
-15 -8 -29 0
-26 -11 27 0
23 -25 -14 0
-4 22 8 0
-26 -2 28 0
-29 -27 -9 0
-25 -7 -27 0
15 -7 16 0
-14 18 -6 0
-30 19 23 0
-24 -17 18 0
-8 20 16 0
