p cnf 50 213
-39 16 37 0
23 -35 18 0
23 21 -10 0
21 -12 41 0
11 -10 -45 0
30 16 -25 0
-45 29 -48 0
17 -28 23 0
-45 11 -50 0
37 -14 23 0
45 -1 -43 0
22 37 4 0
-22 -2 27 0
25 15 40 0
11 20 48 0
-26 36 10 0
-49 28 32 0
-35 1 -46 0
-6 26 18 0
-28 -49 -30 0
-48 2 -7 0
-40 42 -32 0
13 -41 43 0
19 -32 -16 0
-32 -12 41 0
-19 14 20 0
45 42 20 0
-26 11 32 0
-25 49 9 0
21 -30 6 0
-30 -21 -37 0
40 49 -1 0
13 10 42 0
2 -6 30 0
-4 -6 8 0
-21 -6 -1 0
28 -19 39 0
11 -28 -34 0
-28 6 -5 0
-26 17 -12 0
-44 36 -7 0
47 49 -1 0
-16 -23 31 0
19 -17 -14 0
-40 23 4 0
46 34 -13 0
26 44 -9 0
-33 -23 -25 0
-44 38 28 0
-26 30 11 0
9 -23 6 0
-33 38 -46 0
12 -32 27 0
8 24 17 0
8 -47 5 0
29 34 -30 0
13 -45 20 0
-44 12 14 0
-48 -50 2 0
39 33 17 0
-21 -1 -29 0
-44 -40 -48 0
-10 -38 14 0
16 30 41 0
-18 23 24 0
-48 -21 -1 0
-20 18 -49 0
-38 -50 -16 0
27 8 12 0
25 -46 22 0
48 -43 -35 0
-30 -5 35 0
-16 34 -1 0
-35 -23 -2 0
10 -32 21 0
28 18 3 0
-30 31 21 0
48 30 21 0
-36 41 7 0
-28 -46 34 0
-39 35 -16 0
-13 -19 32 0
-22 -27 43 0
-47 24 38 0
22 -39 -45 0
-12 9 25 0
-19 8 -7 0
34 -40 -28 0
-20 43 24 0
48 -26 14 0
10 44 26 0
-3 -47 26 0
12 -46 -25 0
14 2 -48 0
8 -38 10 0
-3 -7 -20 0
-21 15 -43 0
-15 47 -44 0
47 -11 41 0
-27 -3 16 0
26 -41 -5 0
35 44 -26 0
28 -7 31 0
33 5 28 0
-46 -6 44 0
2 23 -20 0
18 -3 -29 0
-48 38 36 0
-25 -35 3 0
11 -29 9 0
-13 20 11 0
48 -27 -42 0
-31 39 -36 0
-47 29 -25 0
-1 26 18 0
-27 10 -29 0
-2 -40 -25 0
-38 -42 -14 0
29 28 -3 0
-41 -48 -34 0
23 47 5 0
-4 -36 50 0
-33 -35 -34 0
21 2 -4 0
-44 -24 26 0
23 49 10 0
23 31 10 0
12 -45 -30 0
-4 28 -2 0
-23 29 1 0
23 -21 -31 0
2 36 -40 0
6 -13 42 0
5 24 44 0
-9 -40 22 0
-13 17 -10 0
4 -7 15 0
-38 -37 -8 0
-49 46 -45 0
27 -9 44 0
-36 -29 -37 0
36 -35 25 0
32 18 -28 0
-28 -35 -50 0
33 -43 -38 0
-48 -3 28 0
37 -8 -22 0
-1 42 14 0
-20 -19 12 0
38 -46 -35 0
7 -25 -38 0
-41 45 -47 0
36 -20 -42 0
-24 -29 16 0
15 11 -40 0
-30 -7 42 0
21 6 -20 0
31 -15 -4 0
-43 -7 -48 0
-33 -22 -43 0
4 18 -19 0
36 14 -7 0
-13 -17 28 0
32 -45 3 0
-27 -2 -1 0
22 50 17 0
21 35 23 0
-23 31 34 0
-46 16 1 0
43 49 28 0
43 -6 3 0
9 13 50 0
-9 6 -33 0
24 -34 4 0
-9 -29 -43 0
-9 8 -16 0
-37 48 6 0
-43 -8 38 0
24 -4 -5 0
36 33 31 0
-7 27 26 0
-21 35 27 0
1 40 -32 0
-22 -2 -12 0
27 -9 4 0
-4 -9 27 0
28 -21 30 0
-4 -34 48 0
-12 -42 -43 0
22 27 -42 0
-27 -45 -2 0
-8 16 -42 0
50 -3 10 0
36 42 7 0
46 18 8 0
-47 33 10 0
29 38 1 0
-23 -45 -15 0
31 9 -47 0
4 -33 -11 0
42 33 21 0
-29 -20 21 0
-34 7 -23 0
48 41 -45 0
-6 -23 -12 0
-24 -4 20 0
-49 -5 -7 0
-48 27 -3 0
-7 -41 -29 0
47 31 -24 0
50 21 -30 0
-36 -4 13 0
5 46 -16 0
