p cnf 30 128
-7 -8 -10 0
15 -3 1 0
28 26 14 0
-5 -20 21 0
-7 25 -21 0
20 10 -29 0
13 -8 -4 0
-27 -11 -10 0
-8 21 -23 0
8 6 -14 0
-16 20 30 0
-24 -20 2 0
23 -14 25 0
-10 6 -3 0
-10 23 -6 0
8 -23 -4 0
-6 -16 12 0
1 28 14 0
-25 -23 17 0
-24 26 -22 0
26 -8 -17 0
17 -3 20 0
1 19 -30 0
-12 27 -26 0
-2 3 7 0
8 -6 13 0
27 -9 28 0
-12 -20 4 0
-26 -8 15 0
7 20 -9 0
-9 19 -16 0
-1 21 11 0
-6 15 -2 0
-8 28 -20 0
28 -21 8 0
21 24 -27 0
-2 -26 -16 0
17 -15 -5 0
22 -11 -2 0
17 11 25 0
3 -4 -16 0
4 -27 17 0
29 14 27 0
-13 24 16 0
-24 7 5 0
30 22 12 0
25 2 -15 0
-12 -1 -21 0
-12 -14 6 0
19 -11 9 0
-22 -29 -24 0
-2 -16 1 0
29 24 11 0
-11 -26 19 0
-10 -25 -22 0
27 25 -11 0
-6 -29 4 0
14 13 2 0
4 6 -7 0
23 17 29 0
17 25 27 0
21 -19 1 0
19 -15 -23 0
4 -24 8 0
19 -17 29 0
-10 7 -30 0
2 24 20 0
18 10 -13 0
1 -24 -5 0
7 9 -24 0
21 -14 1 0
23 10 7 0
16 -1 9 0
-11 -20 -10 0
-7 -11 9 0
-14 28 -11 0
3 -21 17 0
11 -10 3 0
-8 -9 -6 0
4 -8 -10 0
26 -14 -10 0
-13 -24 3 0
20 8 6 0
20 26 -13 0
-5 10 3 0
23 30 -10 0
26 -9 6 0
-4 -29 -23 0
16 18 22 0
25 -11 -21 0
25 -18 -27 0
15 11 -5 0
-21 -5 16 0
9 15 -2 0
17 -10 -25 0
-28 9 22 0
15 -20 16 0
-4 -5 -6 0
14 -2 -7 0
-17 7 -10 0
-29 24 -3 0
-26 -10 19 0
22 19 -16 0
-2 -7 -17 0
-12 -11 7 0
-5 -4 -12 0
21 20 3 0
19 -28 16 0
-4 -20 -17 0
5 -26 -28 0
-10 -24 -20 0
23 6 -13 0
-2 5 -29 0
-19 27 -15 0
-23 29 18 0
8 -4 -18 0
18 -14 15 0
-13 20 11 0
-18 14 16 0
-20 13 -7 0
-8 -7 10 0
-26 18 -15 0
-21 -10 -20 0
-3 -21 -9 0
-5 10 -13 0
-15 -27 26 0
-20 19 -25 0
1 27 -18 0
