p cnf 20 85
1 -19 5 0
-19 2 13 0
-8 17 -15 0
9 17 16 0
6 -8 18 0
-20 -5 15 0
-13 19 14 0
-8 4 -10 0
-5 -2 -20 0
-13 18 16 0
-11 -4 1 0
-10 9 8 0
-17 11 3 0
-8 -12 13 0
7 16 -12 0
4 -13 12 0
12 14 9 0
-4 16 -10 0
12 8 -6 0
4 13 -19 0
13 -17 10 0
17 1 3 0
-8 14 -2 0
-9 -7 -11 0
-12 -1 8 0
-18 -1 -5 0
15 -7 -1 0
8 20 -14 0
-14 7 -13 0
19 12 -20 0
20 -17 -3 0
-9 1 -5 0
19 -11 -7 0
16 4 -17 0
-15 18 11 0
13 -3 17 0
8 -12 16 0
1 -18 13 0
8 -9 -16 0
15 -10 -12 0
-7 -10 -17 0
-11 2 20 0
-7 -14 16 0
-2 11 -17 0
-17 18 -14 0
-20 15 2 0
-18 -7 -1 0
-8 15 20 0
-11 16 7 0
15 13 -20 0
-5 8 4 0
-18 -7 12 0
7 -3 -14 0
5 17 -16 0
-3 16 1 0
-10 -3 1 0
-5 15 9 0
8 -13 19 0
3 2 -5 0
17 16 -14 0
-4 -14 -5 0
14 8 2 0
4 -12 -10 0
-11 -17 18 0
-1 9 -11 0
-20 18 -14 0
17 -3 -5 0
-12 -4 -18 0
13 -7 15 0
-12 18 7 0
-5 -9 18 0
-10 -11 2 0
-4 6 9 0
3 -14 -17 0
-19 15 -11 0
-14 -10 2 0
3 -11 -19 0
-17 5 9 0
9 19 8 0
15 -4 -14 0
-8 -16 -13 0
-10 4 -6 0
-12 -17 14 0
10 9 -13 0
-6 -17 -12 0
