p cnf 50 213
-43 39 37 0
-24 -43 47 0
29 43 4 0
-30 -7 -33 0
-21 -13 3 0
-38 40 31 0
-10 -20 -37 0
-19 -42 -40 0
-45 5 -20 0
40 33 -22 0
12 38 -5 0
-12 -49 -32 0
-49 14 37 0
24 37 -20 0
1 48 33 0
-40 5 29 0
8 3 1 0
-4 8 34 0
-26 39 38 0
37 -9 26 0
-33 27 -46 0
44 27 -19 0
34 -4 1 0
16 -49 34 0
-18 46 -38 0
-15 -31 -14 0
37 -11 -40 0
-10 17 -1 0
-33 -35 17 0
-33 -27 -49 0
-11 34 36 0
44 9 -2 0
35 17 11 0
-8 -18 39 0
29 -33 -24 0
3 25 -40 0
34 10 45 0
13 -36 49 0
-2 -33 -29 0
-7 -45 8 0
7 28 -25 0
47 22 -9 0
-41 -43 24 0
-37 26 44 0
-34 -43 -3 0
-8 4 27 0
-46 -36 -31 0
-6 29 -9 0
-47 33 -13 0
-14 -23 -18 0
36 -15 -21 0
-4 -36 -21 0
35 -26 -4 0
4 14 43 0
-20 -16 12 0
-17 18 -41 0
45 24 -29 0
28 30 25 0
5 44 3 0
10 -21 40 0
4 44 26 0
-50 -11 9 0
-49 8 48 0
40 -44 -41 0
45 -43 18 0
-6 28 -34 0
-45 8 -40 0
-9 -6 -34 0
-5 -42 41 0
-12 1 17 0
21 25 4 0
15 -14 -35 0
10 7 25 0
11 -21 30 0
-24 41 11 0
-16 -25 20 0
39 44 -27 0
-3 21 -43 0
47 10 -15 0
-3 41 38 0
-49 50 4 0
-35 17 -4 0
11 50 48 0
-50 -36 -21 0
49 -21 25 0
-39 3 -14 0
26 18 -21 0
44 -10 26 0
6 -16 -19 0
-20 35 30 0
20 -23 11 0
-40 -23 35 0
-6 21 28 0
13 27 19 0
15 44 -6 0
35 -42 2 0
-33 -45 34 0
43 -12 -19 0
37 13 23 0
11 -28 -9 0
19 -11 20 0
7 -49 -20 0
-17 27 -21 0
-32 4 16 0
-18 21 -7 0
-14 5 -35 0
-18 2 41 0
-5 29 39 0
17 -22 3 0
16 47 -31 0
37 8 -47 0
-36 -12 -38 0
4 -16 9 0
-39 -41 -28 0
-20 -24 23 0
32 -43 42 0
-47 39 49 0
12 29 40 0
-46 7 -10 0
10 4 -1 0
2 30 28 0
-29 20 44 0
-22 -20 12 0
-29 2 3 0
9 48 28 0
-48 -49 40 0
42 9 -48 0
-34 42 18 0
13 27 19 0
28 9 -33 0
44 1 -43 0
25 -38 -35 0
-14 40 -50 0
28 -27 9 0
-40 -3 37 0
-42 -11 30 0
47 18 16 0
-47 50 43 0
40 -26 -37 0
-1 -38 25 0
-8 37 -47 0
45 -44 47 0
19 18 31 0
44 -41 -3 0
40 9 26 0
22 -39 -26 0
8 -16 2 0
32 2 -46 0
-34 8 -17 0
25 22 -29 0
-17 -10 -18 0
-20 -31 -24 0
28 -10 26 0
-34 50 -15 0
16 -15 -8 0
-6 43 11 0
39 16 40 0
13 -28 1 0
10 33 -4 0
43 38 9 0
43 31 -23 0
-18 -36 38 0
37 34 -28 0
31 34 -38 0
15 -11 -26 0
48 -28 46 0
-15 -46 33 0
34 46 -3 0
29 40 -10 0
-12 21 -49 0
23 48 50 0
2 30 -31 0
-3 -38 -11 0
46 39 19 0
-5 9 18 0
19 -23 -32 0
11 -36 43 0
-25 47 -30 0
22 15 -33 0
33 -1 30 0
5 11 6 0
-48 33 17 0
32 -43 -15 0
35 -31 8 0
-22 43 3 0
-36 22 50 0
-41 -11 38 0
6 -11 -8 0
34 -45 37 0
48 33 -34 0
50 -24 13 0
-47 35 23 0
37 17 -30 0
-26 7 -8 0
31 47 20 0
42 43 -5 0
32 -41 -19 0
34 -39 -7 0
22 6 33 0
8 -20 5 0
32 -30 40 0
-40 6 23 0
38 -27 -9 0
-26 -49 -14 0
-39 12 -23 0
-47 3 -6 0
-36 46 9 0
1 -2 8 0
11 -8 34 0
-34 -6 -43 0
10 -14 34 0
-24 10 8 0
-15 17 30 0
