p cnf 40 170
-36 17 12 0
-26 -23 37 0
39 21 36 0
-15 -35 11 0
-26 -8 36 0
-31 3 22 0
37 -28 -8 0
-38 -32 -29 0
-31 -13 35 0
-30 2 -36 0
2 4 3 0
38 14 -24 0
-20 -2 15 0
-31 -14 16 0
1 -6 -10 0
-26 2 15 0
-9 -21 27 0
-4 -40 2 0
-1 38 -32 0
-2 -7 27 0
16 -6 -38 0
5 35 26 0
-23 1 26 0
-9 19 26 0
-11 -23 24 0
9 -21 3 0
-26 -6 -32 0
27 33 11 0
-5 -1 30 0
-16 -4 29 0
-9 21 -15 0
-5 34 -16 0
21 -34 35 0
37 18 8 0
-22 9 -26 0
32 6 -37 0
-1 -20 6 0
-17 24 20 0
8 -22 17 0
18 27 10 0
2 23 40 0
2 -16 24 0
32 14 1 0
-13 -39 -16 0
-8 39 -19 0
14 -9 -31 0
-11 34 12 0
1 -10 -6 0
5 -38 22 0
-39 34 25 0
25 35 33 0
5 37 -19 0
-28 -12 -32 0
-7 -36 4 0
7 15 -26 0
-13 -1 -6 0
-8 25 -28 0
-17 34 30 0
-18 36 13 0
-16 26 -20 0
40 22 -37 0
31 -7 37 0
38 20 39 0
16 11 27 0
36 13 26 0
-11 -20 -31 0
-23 32 18 0
13 28 -34 0
-14 -30 27 0
-20 -38 18 0
-4 -6 -23 0
20 34 10 0
29 -19 33 0
18 25 2 0
-31 5 -20 0
-13 -7 12 0
-37 4 -9 0
23 -40 26 0
40 15 6 0
-15 24 -19 0
26 23 18 0
-1 -37 13 0
9 14 -34 0
-35 40 -2 0
1 15 25 0
-2 -5 -12 0
-9 17 -26 0
28 -15 -11 0
16 18 -39 0
-19 20 -3 0
4 5 -35 0
10 33 21 0
-12 -24 -40 0
-18 -34 10 0
19 -23 -35 0
38 2 -31 0
18 -24 -21 0
-17 20 12 0
14 -28 22 0
16 39 -18 0
8 25 -27 0
-40 -17 10 0
21 -11 7 0
17 28 -37 0
-23 2 -14 0
-40 -25 26 0
-14 6 25 0
-18 40 16 0
3 14 36 0
25 18 26 0
28 29 22 0
15 -6 -20 0
-29 -8 36 0
-9 28 15 0
-4 -19 16 0
-29 -15 -22 0
-26 -9 -30 0
23 -9 21 0
3 21 -39 0
10 14 30 0
17 18 15 0
36 -22 -12 0
9 28 29 0
36 -32 -13 0
-16 26 8 0
32 12 -21 0
-13 2 15 0
32 -13 -11 0
-7 -39 -40 0
3 -26 18 0
-10 -35 -34 0
34 -39 -17 0
-20 21 34 0
7 -21 -39 0
19 -27 28 0
2 -6 -13 0
25 20 16 0
-17 20 -38 0
19 14 -9 0
-24 -30 -7 0
-14 -23 -3 0
-4 40 37 0
-18 8 -35 0
-36 14 -19 0
-20 -13 -34 0
-16 39 -11 0
7 35 -15 0
21 -13 22 0
3 15 16 0
1 9 -37 0
4 3 -30 0
38 -36 -11 0
35 28 23 0
36 -26 -30 0
-2 40 22 0
7 -20 29 0
21 -13 4 0
36 7 5 0
33 25 23 0
-22 -6 8 0
-12 1 37 0
-31 15 25 0
-37 -15 27 0
-14 -38 -40 0
-18 5 -37 0
28 40 -9 0
-7 -2 10 0
31 34 7 0
26 -17 -5 0
-33 -7 2 0
