p cnf 50 213
-31 -35 38 0
47 -49 -8 0
37 -14 -42 0
-48 -46 -32 0
29 18 25 0
-31 40 -36 0
24 23 -3 0
-47 22 -18 0
34 -24 -8 0
37 50 18 0
-18 43 2 0
-34 42 -11 0
18 -3 36 0
-30 39 23 0
13 21 -49 0
-44 48 -49 0
35 -43 -16 0
13 45 -36 0
21 -23 -41 0
1 -3 -45 0
-39 50 21 0
38 -41 -25 0
-43 50 18 0
1 39 21 0
22 41 -10 0
-27 -34 -2 0
39 48 -6 0
-36 -14 43 0
35 24 21 0
16 4 -30 0
-9 48 21 0
-28 6 -1 0
18 25 -38 0
48 -41 18 0
-42 6 2 0
18 -41 2 0
-17 20 -47 0
-26 -39 38 0
5 -11 30 0
41 11 19 0
-13 22 -4 0
-14 -39 27 0
-38 19 -16 0
49 38 -43 0
42 8 -29 0
3 30 -26 0
-46 -19 10 0
-30 44 -12 0
-19 -9 -31 0
6 -50 -19 0
-34 -2 25 0
37 -10 23 0
12 22 -30 0
28 34 2 0
-13 -17 -3 0
35 11 -28 0
47 6 -8 0
33 -42 -20 0
-25 -3 -48 0
-11 41 -25 0
-4 25 6 0
10 -45 27 0
-8 -36 24 0
-31 -44 45 0
6 -46 32 0
-1 43 11 0
39 21 -36 0
-13 11 -50 0
-48 -17 -2 0
-1 13 -17 0
14 34 -22 0
-9 -36 35 0
25 -22 -37 0
11 29 45 0
8 -25 -4 0
-29 -43 -44 0
-46 4 12 0
34 16 25 0
38 41 46 0
38 -45 18 0
31 -46 34 0
-37 -7 25 0
-22 3 -33 0
-40 -43 -36 0
-7 46 2 0
16 9 25 0
38 -25 15 0
15 -35 -7 0
-30 22 41 0
-29 -24 43 0
9 -50 -43 0
28 -1 14 0
-37 7 -29 0
-21 13 -24 0
43 45 11 0
47 27 33 0
-48 -10 46 0
-6 16 -21 0
-48 25 14 0
41 -39 46 0
-36 10 -35 0
4 10 -6 0
15 -46 -40 0
36 30 -18 0
26 28 -32 0
-31 13 -33 0
-36 20 -49 0
43 2 -36 0
41 33 45 0
-6 -39 -22 0
-23 -14 -40 0
-10 -18 4 0
32 4 30 0
49 -47 -32 0
-26 41 24 0
9 -31 -29 0
-14 45 -11 0
-31 -45 -10 0
42 3 -47 0
-10 7 1 0
32 4 -21 0
34 15 23 0
29 -50 -14 0
-38 -40 32 0
-41 45 23 0
38 -28 37 0
47 23 -50 0
-16 22 -17 0
-32 -36 -5 0
-31 26 -37 0
40 42 12 0
-7 43 40 0
20 12 -9 0
-31 -28 -10 0
-34 -50 6 0
-2 -37 -43 0
34 -18 6 0
33 -38 2 0
45 33 43 0
20 47 49 0
-32 49 -14 0
-42 4 29 0
-14 -10 -20 0
47 -35 14 0
33 -44 32 0
28 -36 -32 0
-35 12 -39 0
19 36 -43 0
26 13 -34 0
33 -15 -16 0
7 22 36 0
-31 -21 -19 0
-31 7 -24 0
-23 32 29 0
35 -34 -15 0
37 26 -7 0
33 -26 34 0
-23 7 15 0
6 -8 -25 0
27 -36 -37 0
43 33 -40 0
38 -23 -5 0
33 26 43 0
31 -20 49 0
-45 20 -37 0
2 -18 19 0
17 -28 16 0
-29 23 50 0
-21 24 -7 0
34 -18 50 0
30 -20 22 0
18 34 14 0
46 1 16 0
44 -20 19 0
-16 50 29 0
24 -46 -30 0
-4 -38 25 0
-27 34 -38 0
36 25 -37 0
-49 -28 27 0
22 36 33 0
29 -11 -25 0
38 -13 11 0
-33 -24 43 0
-20 28 22 0
-9 13 -21 0
35 -49 50 0
-8 -47 -25 0
-1 5 -46 0
-35 24 -47 0
-49 7 48 0
50 36 3 0
13 34 -15 0
6 16 -27 0
22 -26 -2 0
9 40 -45 0
-26 21 3 0
-30 44 45 0
32 -49 6 0
-41 -29 12 0
4 41 -31 0
19 36 -6 0
17 -6 30 0
13 48 -38 0
-14 36 -45 0
-16 17 44 0
-10 2 11 0
15 11 37 0
39 -12 -14 0
30 -22 -45 0
-31 -20 -41 0
44 19 -13 0
-23 -24 48 0
