p cnf 40 170
-30 22 -10 0
37 -18 11 0
29 17 -7 0
1 38 -2 0
-26 -1 -3 0
19 -22 4 0
16 -25 10 0
-5 23 -29 0
22 16 -27 0
21 38 -30 0
40 2 28 0
26 -17 16 0
21 -15 12 0
21 13 5 0
-31 -4 -18 0
-20 11 9 0
-14 -38 33 0
-1 36 -16 0
22 -25 -5 0
37 -3 -27 0
-10 35 -29 0
39 -22 23 0
-32 12 -6 0
-30 -29 36 0
12 8 -27 0
-8 -20 9 0
11 -3 40 0
-13 16 -39 0
22 1 -35 0
32 20 -26 0
-4 39 -17 0
40 30 16 0
-15 -39 6 0
14 4 -13 0
-6 -1 20 0
40 6 -7 0
-5 35 -14 0
3 -19 1 0
38 -33 -2 0
-21 -3 -24 0
-22 -32 1 0
35 -36 24 0
1 -30 36 0
-8 -24 30 0
11 1 22 0
-12 37 -3 0
23 -13 -33 0
-21 11 -38 0
17 30 -19 0
-27 -39 -26 0
-35 40 12 0
-16 -21 31 0
22 -14 -2 0
-37 -34 14 0
-31 19 -4 0
11 8 -34 0
25 23 -18 0
31 16 39 0
-11 -8 -6 0
-40 -35 -20 0
-26 -5 -19 0
-27 33 2 0
39 -22 26 0
12 4 -23 0
10 -26 -15 0
-11 33 22 0
26 37 -35 0
-30 -21 -31 0
8 -33 1 0
36 -40 12 0
11 10 -27 0
28 13 12 0
-38 35 29 0
30 24 1 0
18 -6 9 0
-22 -9 26 0
-18 -16 25 0
-11 30 -16 0
35 -13 -31 0
-5 16 3 0
-1 -6 12 0
-21 -9 -5 0
15 18 -16 0
18 -19 -17 0
-38 -33 32 0
-33 8 -29 0
-20 -11 -32 0
-15 14 -27 0
-7 13 40 0
19 1 -40 0
-8 37 -2 0
-18 -32 -16 0
28 -31 25 0
-19 -17 4 0
37 38 21 0
-8 27 -19 0
-33 16 24 0
14 -24 -17 0
24 -4 -32 0
-7 -22 34 0
-23 18 15 0
-1 -24 37 0
-7 34 12 0
13 34 5 0
28 35 38 0
-21 32 36 0
-29 8 -35 0
15 34 26 0
-7 14 -32 0
-19 -11 8 0
-5 -34 37 0
25 -16 -37 0
-1 23 -25 0
-16 -2 -14 0
21 -22 38 0
12 2 16 0
-19 14 -40 0
37 40 -38 0
31 -21 -16 0
-16 6 -2 0
-33 12 -32 0
-23 10 40 0
-9 34 17 0
13 -6 -27 0
-39 -27 -12 0
-16 29 12 0
-3 35 -38 0
31 -21 16 0
-1 -23 -19 0
39 -12 -20 0
-27 39 -30 0
-22 29 36 0
34 16 4 0
30 8 34 0
36 22 35 0
14 21 2 0
33 14 11 0
-22 -13 2 0
-25 -26 8 0
-17 -7 11 0
-28 -36 13 0
-35 -1 -5 0
40 -7 -30 0
-29 -35 21 0
3 2 30 0
4 37 39 0
-14 -30 -32 0
-1 -6 5 0
-2 -39 7 0
26 9 34 0
-19 -24 -1 0
-5 -36 -16 0
9 35 -31 0
-14 -20 -6 0
7 36 -28 0
-34 33 30 0
-10 15 1 0
-11 -30 -21 0
6 29 -22 0
-16 23 -28 0
-40 6 38 0
-12 -29 -14 0
-28 -37 18 0
-31 33 -7 0
12 -16 -26 0
39 38 -26 0
-30 -40 -16 0
35 11 4 0
15 -9 18 0
-25 -31 -7 0
