p cnf 50 213
-7 -1 -5 0
7 4 -31 0
-24 -26 49 0
48 -12 11 0
1 -23 10 0
23 -28 31 0
29 35 -5 0
11 -24 -1 0
-37 -31 -35 0
-46 -12 -7 0
-13 -27 -25 0
-18 -36 -34 0
-43 16 -46 0
-7 50 45 0
-14 -36 48 0
6 -32 -36 0
-27 21 31 0
22 -3 -11 0
-39 -28 -13 0
46 18 -19 0
49 -10 33 0
8 30 -5 0
-46 1 -22 0
-2 26 -15 0
-22 18 -15 0
-50 -7 -44 0
-28 49 -45 0
-35 42 40 0
-50 -34 -30 0
-48 -12 21 0
-48 23 -43 0
-29 9 -25 0
-12 13 48 0
46 -36 -49 0
-37 41 33 0
25 34 -6 0
-3 22 -33 0
15 -38 41 0
-22 -31 -34 0
-14 49 -12 0
32 23 10 0
31 -5 49 0
-17 16 -14 0
-17 -32 47 0
16 -26 -42 0
2 -4 24 0
-15 4 -44 0
46 -29 -39 0
-18 6 39 0
-31 -46 41 0
-3 26 33 0
-43 -20 -14 0
11 -21 -8 0
11 -48 -15 0
-33 -28 16 0
41 -26 33 0
-43 -8 -47 0
42 22 31 0
-49 -43 -38 0
2 -35 44 0
46 35 31 0
-14 50 -26 0
25 -9 37 0
-11 13 -37 0
32 44 -12 0
-16 -13 -9 0
-18 -19 2 0
-33 -21 30 0
-39 -9 -22 0
28 -24 45 0
10 9 23 0
-8 19 -13 0
-24 25 18 0
48 -20 -30 0
47 11 -34 0
-17 -24 11 0
-29 49 44 0
-24 -29 26 0
-2 -3 -44 0
24 -37 -4 0
25 36 37 0
49 26 -6 0
10 -46 -35 0
-22 39 -4 0
43 15 25 0
-22 -37 41 0
-45 12 -21 0
26 -18 -21 0
-32 -16 -45 0
-49 38 -21 0
28 -44 41 0
5 -2 -3 0
8 -48 3 0
-40 -20 -19 0
-43 13 -19 0
-43 -38 -26 0
28 48 34 0
-34 16 20 0
38 35 20 0
-14 21 -16 0
-5 33 -29 0
-29 -45 -15 0
23 -39 -28 0
-26 33 -7 0
-10 12 -28 0
43 -11 -7 0
-9 -32 23 0
-49 -48 25 0
23 42 -22 0
-45 37 50 0
36 43 17 0
41 33 -15 0
24 18 -32 0
-49 31 34 0
18 -1 32 0
39 -14 12 0
39 -42 10 0
-37 3 -14 0
-40 -21 42 0
37 3 -4 0
8 -11 -26 0
41 3 46 0
34 -23 47 0
27 -46 26 0
-13 -42 26 0
-31 37 7 0
50 28 43 0
37 33 16 0
-41 -35 -24 0
9 -19 -28 0
-1 -10 -31 0
21 -50 -30 0
-38 -5 -44 0
-49 23 27 0
-31 -45 -50 0
-28 9 14 0
-40 -45 -3 0
-1 22 -46 0
14 15 16 0
-6 1 -34 0
-44 1 -50 0
-15 -21 -37 0
11 -41 -42 0
-2 -41 -37 0
-25 -29 -10 0
-4 -15 39 0
35 -36 45 0
-36 -49 -17 0
37 -50 -3 0
-12 2 20 0
47 -43 -14 0
-35 -6 -9 0
50 12 -5 0
35 -24 -2 0
-45 -46 -27 0
18 -29 -47 0
-11 -35 28 0
46 6 35 0
32 45 -6 0
6 -21 -3 0
-27 9 5 0
20 -30 -9 0
30 33 -31 0
-37 27 -34 0
19 30 3 0
29 -41 -49 0
24 23 -47 0
19 24 11 0
-36 -35 26 0
6 14 42 0
-40 -36 37 0
24 4 18 0
-45 12 -31 0
19 -18 5 0
39 -8 -5 0
35 33 -8 0
-37 47 -39 0
28 40 26 0
3 -35 25 0
-29 3 8 0
48 -24 -9 0
27 30 33 0
-4 -1 35 0
32 -22 -39 0
-9 29 20 0
-49 -23 -43 0
-21 -30 38 0
11 32 50 0
30 -16 -8 0
-24 -23 6 0
18 -42 13 0
29 19 -45 0
-18 -13 -5 0
43 11 -40 0
-15 10 -28 0
-45 10 20 0
-22 26 14 0
13 42 -18 0
-39 -37 -13 0
-29 -6 39 0
11 39 -20 0
9 22 -48 0
-6 35 -26 0
-31 -21 20 0
-44 -14 -49 0
23 11 21 0
-6 21 -24 0
31 -3 41 0
42 -1 2 0
-19 20 38 0
18 -45 28 0
1 -14 22 0
33 45 -12 0
