p cnf 30 128
-8 -27 22 0
19 -12 -8 0
-17 20 23 0
18 7 1 0
15 18 12 0
18 10 -28 0
24 -27 1 0
27 12 29 0
-18 -26 5 0
-19 -8 -27 0
10 -9 15 0
-2 17 5 0
-27 26 -22 0
-21 16 9 0
-2 14 -13 0
-21 -22 11 0
17 29 -24 0
5 -26 -8 0
-3 18 -1 0
12 -2 -7 0
26 24 -25 0
-8 -30 16 0
21 2 27 0
-2 -30 -17 0
-8 -16 -22 0
-15 -1 5 0
-29 8 16 0
-21 -19 -15 0
9 24 -13 0
10 -23 -28 0
-27 28 -8 0
3 -27 13 0
1 23 -12 0
9 -19 -22 0
29 20 -27 0
26 28 -4 0
25 12 21 0
15 14 -23 0
29 -5 30 0
6 -13 28 0
-22 -24 -30 0
-8 -12 -7 0
-7 21 20 0
14 -26 4 0
-20 1 12 0
-1 9 7 0
-19 -28 16 0
16 30 19 0
30 14 -9 0
-24 23 2 0
-17 -21 13 0
-19 28 17 0
27 -8 -12 0
8 15 30 0
-10 -20 27 0
-3 -28 27 0
8 -6 16 0
-27 -26 -2 0
28 26 4 0
-6 -11 16 0
-11 -22 19 0
17 -19 10 0
17 -25 21 0
12 7 -19 0
-1 -21 -16 0
-27 21 10 0
-2 9 -27 0
-18 -12 30 0
-3 -18 -13 0
15 -7 -6 0
23 -10 -14 0
18 -3 -28 0
15 -26 23 0
-4 28 -9 0
-30 3 -4 0
10 -1 -4 0
-13 -28 -2 0
23 -3 -15 0
-23 22 9 0
23 -10 -21 0
7 -30 -13 0
24 8 10 0
-2 26 21 0
-9 30 -26 0
-1 4 -19 0
-1 13 -18 0
-26 27 -3 0
-8 -27 -26 0
-22 24 7 0
18 -11 23 0
13 19 -16 0
-1 7 26 0
5 24 -28 0
-14 -26 11 0
-11 6 4 0
-22 -11 6 0
-4 13 -25 0
26 6 19 0
30 17 -11 0
12 3 -8 0
26 -29 2 0
-28 -9 19 0
5 -15 -9 0
-20 -5 -19 0
20 -2 -5 0
-26 5 -25 0
9 -17 -16 0
-10 7 12 0
-11 9 -1 0
-10 29 -5 0
-18 3 28 0
-27 20 -3 0
-2 -9 1 0
9 22 -11 0
-21 22 20 0
12 -10 19 0
-23 28 -14 0
-10 15 -9 0
-19 -14 -7 0
8 29 7 0
-26 15 16 0
10 -14 23 0
-14 -1 7 0
-21 17 -8 0
-19 17 -8 0
19 -13 22 0
-3 1 9 0
8 -7 -10 0
