p cnf 20 85
-8 10 -5 0
-6 -8 -14 0
19 -6 8 0
-7 2 14 0
7 -13 -18 0
-3 -18 -1 0
13 15 9 0
-9 -3 -6 0
2 -17 3 0
-5 -17 10 0
12 -20 -10 0
16 7 13 0
15 5 16 0
20 13 -19 0
7 -14 -20 0
20 17 18 0
-14 -10 15 0
-15 -3 1 0
-1 7 6 0
-1 20 -19 0
13 -16 12 0
-4 1 6 0
7 -13 -20 0
16 -5 -17 0
-2 -14 20 0
-10 11 -7 0
11 9 16 0
-3 15 6 0
-20 15 -14 0
-4 19 20 0
4 -14 9 0
-17 -18 -3 0
5 4 -14 0
11 -5 -3 0
-7 14 -1 0
18 -10 14 0
-18 -5 -20 0
3 19 16 0
-7 -13 -1 0
-10 -5 19 0
1 -11 -5 0
12 7 9 0
-16 -18 17 0
15 13 -19 0
8 -5 -13 0
5 -20 -2 0
17 9 10 0
19 -11 -15 0
-13 -12 -11 0
16 -4 -12 0
-17 20 -4 0
12 6 11 0
14 1 -8 0
-2 16 17 0
-19 16 -7 0
20 15 -11 0
-17 14 13 0
10 -8 7 0
-15 8 -11 0
-5 -9 18 0
16 -7 -6 0
18 16 7 0
17 7 -12 0
-2 7 -19 0
9 17 10 0
-13 2 -4 0
9 18 15 0
-12 -8 -3 0
-19 -17 -11 0
-2 4 -10 0
19 17 -7 0
-6 -19 -8 0
-9 16 -10 0
-3 -5 -14 0
-12 18 -16 0
-20 -9 -8 0
-19 -1 14 0
18 -2 -17 0
-15 11 -20 0
4 12 16 0
7 -10 -18 0
-13 4 -19 0
-14 -9 -18 0
9 -15 11 0
-13 -20 -18 0
