p cnf 40 170
-37 -38 27 0
-12 29 -17 0
30 4 -1 0
17 9 7 0
25 -29 -10 0
-38 -34 20 0
27 -17 3 0
6 -29 -8 0
5 -22 -3 0
-1 -13 -7 0
-37 31 1 0
-29 6 -26 0
33 30 -21 0
38 24 -40 0
40 14 -6 0
-22 -6 -32 0
-35 3 26 0
-33 -13 -15 0
-40 -10 -9 0
25 -34 -28 0
-32 9 -23 0
35 -39 -5 0
7 3 -20 0
2 8 4 0
-17 7 5 0
37 -34 -4 0
-20 -4 -8 0
-29 5 22 0
4 27 5 0
28 7 34 0
-24 -25 36 0
30 -32 -33 0
-9 10 34 0
-38 27 14 0
20 10 -32 0
-7 -17 8 0
-37 -36 -10 0
3 -7 -29 0
-18 25 4 0
-6 37 -17 0
16 31 -17 0
26 -12 21 0
-24 3 -31 0
-7 4 17 0
-26 -7 36 0
-2 -26 -35 0
-6 40 31 0
-18 19 -33 0
-24 6 -13 0
-32 7 33 0
-8 -11 20 0
-35 -8 24 0
38 34 -23 0
-11 30 -13 0
-11 -10 -1 0
-6 -30 31 0
-28 -37 12 0
36 14 1 0
-23 -40 -25 0
21 6 7 0
-12 5 -24 0
28 -12 -23 0
-16 -2 15 0
9 -23 -26 0
35 5 -33 0
10 -30 -19 0
-9 -5 -37 0
-4 -7 3 0
-5 29 -17 0
-9 -24 25 0
14 36 -32 0
7 10 6 0
-30 37 32 0
-34 -39 24 0
28 27 33 0
-15 1 20 0
-32 -17 13 0
-36 -20 -3 0
-24 27 -13 0
-38 9 33 0
-32 -28 13 0
38 21 1 0
-39 -16 31 0
36 12 6 0
27 -38 -30 0
-5 29 18 0
-33 19 -34 0
39 -40 -14 0
8 24 21 0
-13 -30 -10 0
-30 15 -16 0
-15 -12 30 0
-18 -34 -2 0
-5 39 4 0
-27 32 18 0
-29 32 -40 0
40 -14 12 0
23 -38 31 0
18 -40 -12 0
-17 33 22 0
39 23 -22 0
-12 10 -16 0
-5 31 -32 0
-2 -32 35 0
20 39 15 0
-20 -33 3 0
-8 12 -18 0
27 1 -5 0
-16 20 8 0
-34 4 23 0
1 -30 -38 0
-2 25 -34 0
24 -20 -39 0
-18 39 34 0
-2 8 36 0
37 -4 25 0
36 -14 34 0
31 14 2 0
-16 -20 -19 0
-11 37 -22 0
29 -38 -10 0
28 36 -13 0
24 21 -40 0
-28 -21 -4 0
-26 31 -16 0
-40 -32 20 0
-23 -27 22 0
-29 -3 -6 0
-25 18 19 0
32 29 25 0
-33 11 26 0
-31 5 16 0
11 -37 13 0
35 -1 -13 0
-6 26 -34 0
-38 39 11 0
-1 -34 -39 0
14 -20 7 0
16 3 -37 0
-8 -25 38 0
6 23 -15 0
-2 9 -25 0
37 -21 -19 0
-5 15 -38 0
22 7 -18 0
36 17 38 0
-6 40 9 0
-9 27 21 0
-10 34 24 0
14 11 -22 0
-12 -16 -21 0
-34 -8 37 0
-31 -38 2 0
-8 38 -22 0
-33 -4 -3 0
-32 -11 -7 0
38 -19 -40 0
40 -8 -9 0
-27 -5 -11 0
10 -12 -19 0
21 28 18 0
-29 -25 -5 0
-16 -4 34 0
24 7 23 0
14 34 -3 0
20 32 -33 0
25 -15 2 0
-28 23 19 0
15 27 24 0
16 32 -12 0
