p cnf 40 170
-2 28 -13 0
32 33 -15 0
-40 6 29 0
5 39 37 0
40 17 18 0
-15 8 -38 0
-13 -35 -18 0
-16 23 -27 0
4 -5 -18 0
6 12 27 0
-14 -20 26 0
10 5 6 0
-15 -32 -6 0
15 9 19 0
22 34 -19 0
-13 36 30 0
27 40 3 0
9 21 -29 0
6 9 -4 0
27 14 15 0
-1 -3 13 0
37 -9 -18 0
-39 21 22 0
40 18 38 0
35 -34 -8 0
-18 35 34 0
-2 -40 -10 0
-20 -8 16 0
26 40 -38 0
-23 9 40 0
-32 -8 40 0
-12 10 -6 0
-16 36 17 0
-6 -22 31 0
-29 24 -26 0
-20 28 32 0
-24 30 33 0
-7 13 25 0
13 -30 -35 0
29 -40 -20 0
-20 14 -7 0
38 20 -11 0
-5 -8 -29 0
34 -2 -40 0
6 32 -11 0
-10 -9 -20 0
11 9 -1 0
-2 -10 8 0
20 22 -35 0
1 -14 32 0
-28 -17 -12 0
-5 35 3 0
-37 14 -12 0
18 26 8 0
-10 -2 -40 0
34 -9 -36 0
19 4 11 0
3 18 25 0
-25 -20 27 0
-15 -5 -33 0
25 16 -9 0
19 1 28 0
39 -27 30 0
12 40 -13 0
28 1 8 0
24 37 10 0
31 -2 -25 0
28 3 -32 0
-32 16 -33 0
-8 28 24 0
28 -26 -30 0
-36 -28 38 0
-40 23 -18 0
11 31 -19 0
-40 -12 20 0
14 37 -20 0
-31 37 -12 0
-32 -35 19 0
10 -27 1 0
-21 -4 -33 0
3 14 -5 0
-40 29 19 0
-9 37 -24 0
-28 -8 -25 0
-10 33 28 0
25 -23 -14 0
-1 -12 18 0
24 35 -39 0
-10 -38 -34 0
8 14 -5 0
31 18 -35 0
-27 -38 -40 0
37 -19 3 0
-9 24 -38 0
-31 40 26 0
14 39 -35 0
-11 -2 -36 0
-6 -1 13 0
-21 -7 24 0
27 14 3 0
-4 -26 -27 0
11 29 -10 0
29 -32 18 0
36 -35 -10 0
19 23 -35 0
-12 39 -40 0
34 9 -27 0
20 -13 -29 0
-2 -40 -32 0
-9 -18 34 0
-10 -4 -26 0
25 31 33 0
-23 -34 10 0
21 8 19 0
35 -23 -28 0
39 25 9 0
-24 13 -12 0
8 -25 -30 0
7 -17 9 0
32 -7 22 0
-36 -11 -38 0
28 -17 -39 0
15 3 35 0
21 -13 34 0
18 15 3 0
8 -33 14 0
-2 -40 5 0
-10 35 -20 0
37 9 -21 0
20 -14 28 0
16 -4 -38 0
-31 11 38 0
-39 -40 14 0
30 28 11 0
-8 -37 38 0
28 8 17 0
7 -22 6 0
-22 -25 -31 0
-35 32 -7 0
3 -31 6 0
-30 -24 -5 0
-20 31 22 0
24 19 16 0
1 20 39 0
33 11 40 0
3 -6 28 0
-28 -18 -34 0
-17 -6 11 0
21 34 -33 0
-39 -40 -20 0
1 20 -9 0
4 -26 -11 0
-38 26 -20 0
-36 -14 -3 0
26 29 34 0
3 -29 30 0
-26 25 -18 0
21 33 -2 0
14 38 18 0
19 -33 32 0
-6 -2 -32 0
34 -32 -20 0
20 4 37 0
-36 -11 7 0
-21 32 -40 0
-3 19 -4 0
15 5 34 0
22 15 -2 0
14 32 -24 0
40 -16 -14 0
