p cnf 20 85
14 20 1 0
-3 12 -20 0
-12 -20 6 0
-3 -5 -7 0
-1 -10 -12 0
6 15 4 0
5 1 7 0
10 -20 -18 0
-4 18 -10 0
-5 -8 -11 0
-10 -12 -14 0
-13 3 19 0
18 14 5 0
3 -8 15 0
14 1 -20 0
-12 -10 -16 0
-9 4 18 0
-6 -14 19 0
11 17 -5 0
-16 7 10 0
-1 7 -10 0
14 -16 3 0
9 -1 -4 0
9 13 -17 0
-9 -12 -10 0
3 -9 -10 0
6 3 -14 0
-19 17 7 0
9 -10 -15 0
4 20 -13 0
18 10 -12 0
16 20 -17 0
15 -10 -5 0
1 -12 -16 0
3 -13 -1 0
20 -1 -9 0
-19 10 7 0
11 13 6 0
5 -15 -20 0
6 15 12 0
13 -8 -7 0
-13 -2 8 0
2 -6 8 0
-12 14 15 0
-16 9 20 0
-2 20 -19 0
-10 1 -5 0
-20 13 -18 0
11 4 3 0
-11 -9 1 0
3 -7 -17 0
9 10 19 0
12 -8 -2 0
-15 16 20 0
-15 -20 -4 0
-4 5 -14 0
-14 -18 -13 0
16 8 5 0
14 -4 18 0
15 17 -20 0
-1 4 -19 0
7 -10 -1 0
13 -9 4 0
8 20 -3 0
-12 -16 -10 0
18 -17 -11 0
-13 -5 -6 0
-16 -19 -7 0
13 -12 -5 0
17 12 -16 0
8 18 6 0
3 -9 5 0
-10 -13 2 0
-8 11 15 0
6 -10 -1 0
-12 -1 -16 0
2 -1 -8 0
-12 14 5 0
-5 12 10 0
13 1 -14 0
19 -4 -14 0
-17 -5 20 0
-8 -6 -20 0
3 -14 -4 0
-9 -11 13 0
