p cnf 50 213
-33 36 -49 0
17 15 22 0
3 -17 22 0
19 36 -31 0
38 39 -37 0
2 -22 18 0
15 16 25 0
-14 46 -35 0
17 2 19 0
7 34 25 0
-44 -22 -30 0
36 31 -26 0
7 14 38 0
36 -4 -48 0
-34 24 -26 0
-11 24 -43 0
11 29 2 0
24 -1 45 0
13 37 19 0
-45 4 -32 0
-48 30 -20 0
4 -2 27 0
-48 35 -9 0
21 -41 -5 0
37 50 -49 0
-49 -33 16 0
3 19 -6 0
-39 3 38 0
34 -14 9 0
48 34 -14 0
-31 41 43 0
-34 -39 26 0
-7 -17 10 0
-20 34 39 0
-39 2 -37 0
-43 9 44 0
30 17 -10 0
-22 -39 9 0
50 1 7 0
-12 37 -14 0
-45 29 -17 0
-46 -2 -43 0
-49 -6 -41 0
-17 2 -19 0
-46 -34 29 0
-46 -22 11 0
-26 -34 -22 0
-1 -25 -27 0
44 -14 45 0
-40 21 26 0
-48 -36 50 0
-38 -30 -11 0
14 41 42 0
15 3 -46 0
38 -14 -1 0
23 7 -25 0
-49 24 21 0
-21 5 11 0
-23 50 47 0
9 -8 15 0
28 -3 31 0
-37 -33 -49 0
29 35 -41 0
-42 -34 -38 0
44 21 -17 0
-1 -29 -15 0
15 -38 -8 0
32 -45 -50 0
-41 28 -9 0
9 -22 38 0
-39 12 6 0
-37 -40 -23 0
13 -38 16 0
-40 -1 26 0
24 6 44 0
-17 -1 22 0
23 -49 43 0
-19 -30 -49 0
-6 -14 32 0
-12 -26 37 0
34 44 2 0
-16 6 44 0
30 5 4 0
-10 46 12 0
-40 -7 -10 0
-3 10 -21 0
-25 -43 -9 0
31 -18 -30 0
-31 -49 35 0
-13 -28 -36 0
6 -17 29 0
45 47 28 0
-4 10 21 0
-21 -29 47 0
24 33 41 0
2 6 -48 0
48 27 -14 0
36 -44 12 0
-21 -8 20 0
4 -23 -25 0
-48 23 30 0
-30 3 49 0
23 -29 19 0
38 -4 -45 0
-39 3 -48 0
4 9 44 0
-42 -31 32 0
-49 -15 -1 0
31 -9 -46 0
16 -28 -26 0
-23 -41 33 0
-37 12 1 0
49 -35 -4 0
47 -22 33 0
-7 -22 19 0
2 40 14 0
3 -6 8 0
-38 -43 -11 0
9 -49 -46 0
-10 21 41 0
7 30 21 0
-26 -44 -24 0
49 32 -5 0
40 42 2 0
-1 -7 29 0
36 7 -25 0
50 16 -44 0
-9 -8 -35 0
19 1 18 0
-40 -30 11 0
-44 39 4 0
7 29 20 0
37 -31 -42 0
12 -50 30 0
17 48 1 0
41 -16 -50 0
10 49 -8 0
25 3 27 0
-42 19 48 0
-32 -1 39 0
-44 -17 -12 0
-38 -45 28 0
-48 -32 -8 0
13 -11 48 0
36 -19 20 0
-34 -7 -2 0
25 34 -31 0
-26 -17 14 0
36 -7 -16 0
-2 -18 -20 0
39 -25 -20 0
10 -11 46 0
-24 -18 -25 0
-42 -29 -26 0
-47 45 -34 0
-45 -12 -10 0
7 -18 -6 0
-29 -19 -37 0
-24 1 25 0
18 -13 24 0
-30 28 23 0
28 44 -16 0
-7 -22 -5 0
22 34 25 0
39 -31 -17 0
-45 18 -32 0
10 -37 -40 0
-8 31 -41 0
21 -14 -39 0
26 -8 -50 0
-7 -11 -14 0
-15 4 -37 0
-12 -31 11 0
-27 -28 -10 0
-30 -17 8 0
-9 11 -28 0
-21 -30 -2 0
38 -49 -46 0
18 -3 12 0
-32 -13 -15 0
44 -40 -30 0
39 -38 -17 0
39 -17 -34 0
-39 -20 -18 0
8 -38 2 0
7 -34 50 0
-22 -42 -21 0
-35 31 11 0
22 -13 42 0
-7 -18 32 0
-35 19 -12 0
-33 8 12 0
31 -11 -27 0
-28 -19 10 0
-48 -4 -46 0
9 16 15 0
4 -27 21 0
-26 44 -49 0
27 44 -9 0
13 11 -6 0
-13 -8 32 0
38 10 40 0
-1 -39 -41 0
-21 45 -34 0
26 -37 -46 0
41 -8 16 0
-3 47 14 0
-30 10 -9 0
-15 46 -26 0
-28 -26 -23 0
-17 -10 -34 0
-4 -42 -14 0
-10 42 -50 0
