p cnf 50 213
-17 -38 30 0
-44 -33 -41 0
4 -43 -10 0
49 10 17 0
24 29 37 0
-7 35 43 0
18 -50 -8 0
-27 -24 5 0
-6 -21 -7 0
7 18 -38 0
-26 50 -14 0
-5 -37 38 0
-16 28 -47 0
-20 -28 22 0
19 -7 -9 0
-34 -48 -42 0
9 -34 18 0
48 47 43 0
-18 -5 -38 0
32 18 -25 0
-42 -28 6 0
14 15 -45 0
30 41 17 0
15 -39 -10 0
-23 -50 -29 0
-48 14 -5 0
2 36 -18 0
-31 -8 -7 0
-17 -8 -20 0
-13 -45 35 0
-36 30 9 0
40 10 30 0
-29 32 -31 0
47 29 40 0
-13 -15 -31 0
-39 45 38 0
-6 -21 -40 0
8 23 -44 0
-12 -33 -29 0
5 -17 -13 0
20 1 -25 0
45 -28 4 0
-12 9 -25 0
18 -41 -47 0
44 49 2 0
-22 44 49 0
32 6 -16 0
-34 -27 10 0
19 17 23 0
-44 -26 -21 0
-33 26 11 0
-35 17 -48 0
38 39 45 0
-7 49 -29 0
-2 -1 13 0
-38 21 -23 0
31 -36 27 0
-38 31 -10 0
-49 5 47 0
39 32 10 0
-1 8 33 0
16 -9 -22 0
-14 1 9 0
-17 -15 -46 0
-45 26 -12 0
-50 9 20 0
37 9 34 0
20 17 -35 0
-36 -10 9 0
33 -9 17 0
-38 -25 28 0
-30 -6 38 0
29 -21 -44 0
-3 -49 32 0
48 42 15 0
26 43 1 0
-13 -41 30 0
23 26 31 0
2 11 48 0
-44 -34 22 0
-42 -13 -48 0
35 37 -28 0
23 -1 15 0
-40 43 6 0
28 46 -25 0
-40 17 33 0
35 -5 12 0
-38 32 -45 0
-44 33 40 0
37 -9 -30 0
42 21 -14 0
12 34 15 0
-33 -35 7 0
42 -39 -14 0
-15 -28 35 0
11 2 47 0
-32 -40 43 0
2 19 -17 0
-23 -45 -1 0
31 4 32 0
23 5 43 0
32 -21 49 0
32 -9 -26 0
-34 45 -46 0
-37 -29 3 0
-34 29 19 0
-28 13 -48 0
12 43 33 0
34 38 -35 0
30 36 28 0
20 26 29 0
-5 -3 -48 0
-44 9 -30 0
-6 -14 -36 0
-49 -43 35 0
-14 -2 -31 0
17 -32 46 0
-20 -50 45 0
20 -48 32 0
14 11 -30 0
19 -9 44 0
-27 20 -14 0
-6 28 36 0
12 37 15 0
-46 18 -40 0
-15 -48 -8 0
-20 50 -40 0
42 7 25 0
39 -28 -50 0
16 5 -7 0
49 -50 -4 0
42 -5 -21 0
-4 -3 -9 0
-16 -47 -19 0
35 45 22 0
-38 8 -30 0
-28 16 -10 0
-30 -39 -29 0
50 16 -21 0
-19 17 -10 0
41 19 -43 0
50 -27 14 0
-38 5 -34 0
26 7 -46 0
-34 -47 2 0
-40 43 -30 0
-24 -40 -12 0
39 17 31 0
-11 -38 -9 0
-50 -21 30 0
-48 27 -13 0
-29 47 27 0
-2 17 44 0
45 -25 36 0
17 26 23 0
-31 23 34 0
47 -21 -8 0
9 -10 30 0
-23 13 -15 0
-24 48 3 0
1 43 -11 0
9 -48 26 0
35 20 -3 0
-29 -42 24 0
13 -37 29 0
-45 -19 -33 0
-41 15 48 0
-16 -38 -22 0
41 -4 -10 0
37 -2 -32 0
36 -43 8 0
-32 -39 48 0
-4 -17 -16 0
39 -5 15 0
-35 -41 45 0
-19 35 -48 0
-25 -13 -48 0
-9 -15 -4 0
28 26 -23 0
8 -41 -7 0
-42 -17 -43 0
-27 43 -6 0
-7 -39 12 0
35 -43 -7 0
-33 -48 -43 0
-22 -20 12 0
-40 14 27 0
39 12 -10 0
49 48 15 0
-45 44 -4 0
47 44 -8 0
-42 -36 15 0
15 -18 3 0
-40 14 -12 0
21 -29 32 0
-23 -10 50 0
-47 -20 -1 0
9 46 48 0
33 50 31 0
36 40 13 0
-36 29 45 0
-31 -35 16 0
13 -39 -46 0
16 6 -35 0
-16 -39 44 0
33 19 -18 0
-29 -25 36 0
12 15 -38 0
30 6 -14 0
5 9 4 0
-40 37 -11 0
7 -11 -38 0
-25 -12 8 0
