p cnf 40 170
-17 -8 -6 0
-33 -13 -25 0
6 -35 -20 0
15 23 35 0
2 -5 -12 0
29 -32 -7 0
24 -13 -19 0
-6 20 40 0
-16 40 -1 0
39 23 12 0
-4 -16 -23 0
-27 2 -21 0
2 30 33 0
-21 -3 39 0
-18 -21 -22 0
-22 13 -37 0
-28 -21 -32 0
-5 -36 18 0
11 6 -32 0
-28 27 -3 0
16 10 -33 0
-26 34 -37 0
-20 -33 22 0
-11 15 -18 0
18 2 31 0
-28 12 -4 0
19 4 -3 0
-39 17 11 0
30 22 -27 0
-35 -24 4 0
13 -32 -35 0
39 -38 -13 0
18 -6 -30 0
-14 -32 10 0
-30 12 6 0
37 -22 40 0
-8 -13 7 0
-27 37 -11 0
29 40 -23 0
26 18 19 0
33 23 13 0
-6 21 -14 0
-38 18 -14 0
-29 20 13 0
-30 13 31 0
-19 12 33 0
12 -6 35 0
-39 -24 -16 0
6 40 3 0
13 38 -7 0
30 11 39 0
28 9 -11 0
-16 -3 -13 0
-14 7 -40 0
-16 -40 -5 0
-8 29 -3 0
17 -18 39 0
7 24 8 0
28 -19 12 0
-33 -3 15 0
39 22 -31 0
15 30 -25 0
-10 -25 15 0
-15 -28 25 0
-11 27 36 0
-17 -12 -7 0
12 -24 21 0
1 10 -39 0
28 11 32 0
-22 12 34 0
-13 -8 14 0
35 -28 -8 0
27 1 -24 0
8 19 -13 0
3 36 -28 0
37 -19 5 0
-2 7 32 0
-2 20 34 0
-12 1 -4 0
2 25 21 0
-1 2 19 0
38 39 11 0
1 -39 6 0
-22 13 4 0
26 -34 37 0
-10 -33 -7 0
23 15 -17 0
-13 -11 -17 0
-24 -31 -34 0
17 40 -22 0
24 -22 -6 0
-39 -26 31 0
-40 -33 18 0
15 -1 36 0
-13 -37 -1 0
-35 5 -27 0
22 32 37 0
-37 -30 -26 0
-11 -7 40 0
36 1 -27 0
-34 -20 32 0
22 -23 3 0
29 -11 -28 0
-37 19 34 0
-2 -6 1 0
-21 1 -37 0
-3 -30 -13 0
-11 -37 6 0
-37 21 -8 0
17 -18 -38 0
-10 20 8 0
37 -22 -26 0
-1 14 -39 0
36 -8 9 0
40 -38 31 0
-21 7 -5 0
-29 8 7 0
-14 -40 -27 0
-10 23 -11 0
21 -9 38 0
19 -27 1 0
31 35 9 0
-4 8 -21 0
-26 6 -36 0
10 16 25 0
-18 27 31 0
18 21 -35 0
13 -2 6 0
-31 29 7 0
14 -15 10 0
7 -27 32 0
-20 4 18 0
23 -8 2 0
-29 36 24 0
-8 35 -34 0
-21 28 -3 0
-11 -25 15 0
-23 39 -26 0
-32 19 -37 0
-9 31 1 0
38 11 8 0
33 -16 10 0
38 -21 10 0
-38 -33 35 0
28 -11 -19 0
24 -28 34 0
2 -18 -36 0
36 -18 -40 0
-21 -27 -40 0
-37 -29 9 0
-36 -14 -32 0
-23 3 36 0
17 40 -28 0
11 22 -17 0
31 16 -13 0
20 22 -7 0
6 -29 11 0
-2 12 25 0
33 -13 -38 0
-19 -33 -1 0
-25 21 -23 0
9 38 -40 0
5 26 13 0
2 -33 -25 0
-24 -8 -12 0
-17 7 -24 0
-24 7 -14 0
-9 -5 -15 0
-24 11 -23 0
-9 -4 39 0
