p cnf 50 213
49 -30 -14 0
-43 31 -46 0
11 35 5 0
35 17 4 0
29 -47 37 0
-44 -16 -21 0
36 21 14 0
1 -38 36 0
24 -41 -18 0
-49 -36 23 0
-44 5 4 0
-9 48 -39 0
39 -33 44 0
-19 1 45 0
-31 -10 22 0
-42 -11 -29 0
-30 50 46 0
8 45 12 0
29 -43 15 0
3 -37 -18 0
-42 -3 45 0
-36 -25 -15 0
-2 -10 34 0
20 -27 28 0
-28 13 50 0
19 31 48 0
-13 31 5 0
46 -27 1 0
1 -19 -33 0
-7 36 41 0
20 -40 -2 0
48 -32 5 0
12 -5 14 0
32 26 33 0
-26 33 -27 0
-1 8 -42 0
-3 35 -8 0
4 -47 -33 0
-34 -6 -3 0
-1 -50 22 0
-22 40 -23 0
21 3 -26 0
-19 -39 -26 0
-15 48 -6 0
-50 -34 8 0
30 9 37 0
-35 -19 -17 0
37 -47 11 0
-14 12 48 0
-11 17 -18 0
-25 11 16 0
-46 39 35 0
-3 23 30 0
-28 19 -49 0
-8 36 -22 0
8 -37 11 0
9 -11 -16 0
5 -29 31 0
16 20 -44 0
-20 23 -7 0
4 20 -1 0
-1 -44 35 0
-30 22 -43 0
29 -6 -3 0
-42 -35 10 0
37 -29 10 0
-18 -17 -6 0
27 24 26 0
45 47 -12 0
28 25 -47 0
36 -35 -11 0
-17 -20 -11 0
-34 -10 30 0
-43 48 -23 0
9 42 -7 0
7 50 12 0
-26 -41 -21 0
33 -9 -8 0
-41 8 39 0
-42 43 -6 0
-7 -29 -23 0
-31 -11 -19 0
5 18 46 0
19 39 -33 0
-23 -11 -9 0
-32 -17 29 0
-4 -6 14 0
24 44 39 0
6 15 31 0
39 38 -46 0
-5 -17 -39 0
-47 40 29 0
-49 -11 23 0
25 5 -20 0
4 -28 41 0
-9 24 -2 0
8 -23 -14 0
-33 40 -7 0
-40 -26 34 0
-21 -5 2 0
-30 -25 1 0
24 7 30 0
-35 -34 -49 0
26 -19 5 0
24 -5 -33 0
-4 49 -5 0
29 -10 11 0
17 -8 -34 0
36 -1 -17 0
17 -48 -8 0
-18 1 46 0
26 42 36 0
-23 17 35 0
33 23 -18 0
36 24 10 0
-26 17 9 0
48 -19 35 0
-26 -4 47 0
19 -21 48 0
22 17 43 0
23 34 43 0
20 39 -13 0
-30 9 12 0
11 23 28 0
-10 44 2 0
46 20 49 0
-2 13 -3 0
-37 44 -30 0
17 -26 33 0
22 -15 41 0
-22 -28 -38 0
22 -18 -34 0
-26 31 47 0
-36 -14 23 0
25 -7 29 0
13 6 9 0
-15 -26 -1 0
-35 -3 18 0
7 22 49 0
-23 32 21 0
26 39 40 0
12 7 -11 0
-9 44 -4 0
-41 9 -33 0
-46 18 -19 0
-27 33 25 0
5 8 -39 0
9 -7 41 0
20 33 -50 0
-27 -9 22 0
-4 28 48 0
-30 20 -48 0
-29 -50 -21 0
36 -34 -46 0
-39 -2 18 0
-42 -9 -23 0
-7 -32 26 0
32 14 -20 0
-34 -2 37 0
-25 32 33 0
22 -40 43 0
-7 5 21 0
-48 -29 37 0
-21 -49 11 0
-28 -13 -45 0
22 15 25 0
-36 -9 -29 0
4 37 18 0
-45 -33 46 0
26 -35 43 0
39 -30 -6 0
-3 -38 -22 0
-44 -4 -36 0
28 -14 -29 0
-14 -42 -43 0
37 -4 -25 0
50 -20 35 0
21 12 -42 0
-36 -16 -39 0
-19 24 18 0
47 -12 18 0
-48 4 -33 0
-1 -50 -41 0
50 16 19 0
-22 24 15 0
-20 22 -1 0
30 44 47 0
-7 21 -30 0
42 2 1 0
-21 18 -24 0
11 8 -46 0
-26 49 33 0
42 5 12 0
-17 31 3 0
-29 9 16 0
45 24 1 0
42 -47 25 0
-36 -35 32 0
47 46 1 0
15 14 46 0
-14 -21 43 0
-19 43 -16 0
39 -49 -11 0
28 1 -15 0
18 -14 6 0
-3 20 -50 0
-14 39 -20 0
-28 -47 19 0
35 5 1 0
-4 41 -44 0
18 -2 -26 0
49 -13 -18 0
10 -32 8 0
