p cnf 50 213
41 -37 -47 0
25 -22 -44 0
28 -3 39 0
5 18 42 0
9 -5 16 0
37 -17 -22 0
46 50 -6 0
21 10 23 0
33 16 -4 0
-1 14 46 0
11 50 22 0
-31 22 34 0
49 -22 46 0
-40 15 1 0
18 -44 22 0
-36 -28 -32 0
12 -23 35 0
37 -42 -17 0
43 22 -42 0
8 5 -26 0
34 45 20 0
-33 27 -25 0
28 -47 37 0
43 26 29 0
-12 35 23 0
36 -44 -8 0
22 -42 -2 0
-3 18 -32 0
8 -25 -32 0
15 -40 -45 0
-12 -25 -46 0
49 -48 36 0
19 -33 36 0
-22 -41 -27 0
-18 39 -41 0
36 -17 41 0
50 -20 -2 0
27 1 39 0
39 -34 -2 0
-49 -8 -12 0
-21 -26 49 0
33 22 -42 0
46 31 19 0
-33 12 -13 0
-22 -26 -23 0
23 12 32 0
39 -23 15 0
-19 10 15 0
18 7 -48 0
-39 36 9 0
42 -22 -4 0
9 43 23 0
12 48 27 0
-23 14 -18 0
11 -40 -37 0
25 -46 44 0
40 37 -4 0
46 -45 -41 0
12 22 -2 0
-42 29 34 0
27 26 -41 0
11 -2 -12 0
-33 -22 -20 0
-21 48 -30 0
-9 -10 -23 0
-19 -40 -49 0
30 6 -3 0
8 -44 -22 0
-12 -42 -26 0
13 -2 37 0
-20 -45 -18 0
38 -9 -28 0
-21 23 6 0
43 33 42 0
28 -45 -30 0
-42 40 31 0
-4 33 -47 0
-8 36 22 0
21 -17 45 0
-8 -45 -5 0
-5 -23 7 0
-34 -43 22 0
-6 -47 9 0
41 38 -13 0
-32 -41 -24 0
-19 -40 18 0
9 -17 -33 0
-22 4 -25 0
43 40 -50 0
35 37 -9 0
7 -41 -15 0
-4 23 -12 0
-15 31 -50 0
37 -11 39 0
16 -30 -50 0
-13 5 -16 0
-38 -41 11 0
-8 4 -39 0
23 -33 -44 0
-50 -22 -31 0
3 28 6 0
-35 10 -47 0
-49 6 22 0
-49 11 30 0
-23 15 -16 0
-18 -24 -15 0
-27 18 -14 0
7 13 -26 0
22 -42 -11 0
-22 -6 -14 0
11 3 39 0
-7 31 12 0
44 -30 -19 0
47 44 12 0
-50 35 -3 0
-32 34 -42 0
-42 -38 25 0
2 18 -11 0
-9 -44 4 0
7 -46 43 0
-44 -17 -34 0
-36 -39 -42 0
-39 24 21 0
37 20 11 0
8 43 42 0
-2 24 -40 0
19 29 -18 0
-21 36 -33 0
1 9 -13 0
-19 12 -21 0
-47 -33 -24 0
39 2 -38 0
-40 44 -24 0
33 27 -25 0
44 -50 -35 0
40 6 31 0
33 -35 -45 0
8 -16 13 0
-8 -45 29 0
5 -14 -32 0
43 15 -20 0
-4 -5 38 0
11 -26 2 0
45 -24 -37 0
-31 -35 29 0
49 -7 33 0
-47 42 -41 0
39 -2 19 0
-30 -42 25 0
13 -27 36 0
39 31 -7 0
20 7 -26 0
-22 -33 -13 0
-19 23 1 0
-19 45 42 0
-34 -31 -32 0
-19 12 -21 0
35 -23 21 0
-15 -30 -14 0
-17 -35 48 0
24 9 -45 0
46 35 12 0
-26 -6 9 0
43 -45 -11 0
-30 -14 -33 0
-27 -50 42 0
-36 -15 -24 0
5 -43 -35 0
-29 3 -48 0
-22 -44 3 0
36 -17 16 0
-49 25 48 0
5 -7 49 0
-30 -35 19 0
47 -30 4 0
34 11 4 0
23 -12 40 0
-26 -2 22 0
-29 12 8 0
-17 -37 -7 0
10 -5 -31 0
-37 -42 -19 0
7 3 33 0
-15 11 -37 0
17 21 44 0
-34 -9 42 0
-20 -41 -31 0
22 21 -3 0
15 -16 3 0
24 -29 -30 0
-32 -40 21 0
-14 -4 39 0
-6 -20 -46 0
-47 -4 -24 0
1 19 29 0
14 -31 -26 0
7 -50 5 0
-15 11 27 0
2 -5 6 0
16 13 40 0
-8 9 45 0
-6 11 33 0
17 -33 -18 0
1 23 -31 0
-43 40 -17 0
-45 12 -38 0
-11 -38 -41 0
-12 45 -19 0
-9 -47 -38 0
-34 -33 24 0
-17 -41 18 0
22 -14 46 0
-37 11 -20 0
