p cnf 20 85
19 3 5 0
-12 -17 -20 0
-5 -9 -7 0
16 20 -5 0
2 -6 -12 0
17 16 -5 0
4 -8 12 0
-13 18 -12 0
13 -2 14 0
2 9 -3 0
9 8 -6 0
-6 16 7 0
-2 -9 1 0
-6 -13 -8 0
15 18 20 0
4 -1 14 0
-8 13 1 0
13 6 5 0
-7 -9 3 0
6 -4 5 0
9 17 14 0
15 4 9 0
-10 13 -17 0
-14 -9 20 0
-18 -3 9 0
13 18 12 0
19 -6 1 0
-14 -3 8 0
5 -16 11 0
-9 -16 11 0
-17 9 -13 0
-17 5 -19 0
2 -1 -16 0
5 -15 20 0
12 -5 15 0
4 20 19 0
6 1 -16 0
3 14 9 0
-13 5 -14 0
9 3 5 0
-10 -15 11 0
5 -11 -8 0
18 -19 -15 0
11 -6 -9 0
13 11 -19 0
-7 -10 6 0
8 -3 -17 0
13 3 -20 0
-5 -2 4 0
-20 -4 -10 0
10 13 6 0
-6 -13 -9 0
7 -17 12 0
17 -14 -10 0
-12 -6 -16 0
-5 15 -14 0
-4 -11 5 0
16 11 -20 0
-20 -6 9 0
-15 6 4 0
-14 11 19 0
5 -17 -1 0
-3 -18 -1 0
-11 -10 -7 0
6 12 -13 0
-13 2 -8 0
-14 -5 7 0
9 10 15 0
11 9 17 0
13 -11 -20 0
15 -10 -13 0
-16 -7 6 0
-17 20 -6 0
-16 -8 -14 0
-17 -2 -3 0
19 -7 -12 0
13 -16 -5 0
20 -19 -15 0
-14 -4 7 0
9 11 -6 0
-3 -13 1 0
14 -8 11 0
3 -16 19 0
-2 -12 11 0
-15 1 6 0
