p cnf 196 4911
-1 -2 0
-1 -3 0
-1 -4 0
-1 -5 0
-1 -6 0
-1 -7 0
-1 -8 0
-1 -9 0
-1 -10 0
-1 -11 0
-1 -12 0
-1 -13 0
-1 -14 0
-1 -15 0
-1 -16 0
-1 -29 0
-1 -43 0
-1 -57 0
-1 -71 0
-1 -85 0
-1 -99 0
-1 -113 0
-1 -127 0
-1 -141 0
-1 -155 0
-1 -169 0
-1 -183 0
-2 -3 0
-2 -4 0
-2 -5 0
-2 -6 0
-2 -7 0
-2 -8 0
-2 -9 0
-2 -10 0
-2 -11 0
-2 -12 0
-2 -13 0
-2 -14 0
-2 -15 0
-2 -16 0
-2 -17 0
-2 -30 0
-2 -44 0
-2 -58 0
-2 -72 0
-2 -86 0
-2 -100 0
-2 -114 0
-2 -128 0
-2 -142 0
-2 -156 0
-2 -170 0
-2 -184 0
-3 -4 0
-3 -5 0
-3 -6 0
-3 -7 0
-3 -8 0
-3 -9 0
-3 -10 0
-3 -11 0
-3 -12 0
-3 -13 0
-3 -14 0
-3 -15 0
-3 -16 0
-3 -17 0
-3 -18 0
-3 -31 0
-3 -45 0
-3 -59 0
-3 -73 0
-3 -87 0
-3 -101 0
-3 -115 0
-3 -129 0
-3 -143 0
-3 -157 0
-3 -171 0
-3 -185 0
-4 -5 0
-4 -6 0
-4 -7 0
-4 -8 0
-4 -9 0
-4 -10 0
-4 -11 0
-4 -12 0
-4 -13 0
-4 -14 0
-4 -17 0
-4 -18 0
-4 -19 0
-4 -20 0
-4 -31 0
-4 -32 0
-4 -33 0
-4 -46 0
-4 -60 0
-4 -74 0
-4 -88 0
-4 -102 0
-4 -116 0
-4 -130 0
-4 -144 0
-4 -158 0
-4 -172 0
-4 -186 0
-5 -6 0
-5 -7 0
-5 -8 0
-5 -9 0
-5 -10 0
-5 -11 0
-5 -12 0
-5 -13 0
-5 -14 0
-5 -17 0
-5 -18 0
-5 -19 0
-5 -20 0
-5 -31 0
-5 -32 0
-5 -33 0
-5 -47 0
-5 -61 0
-5 -75 0
-5 -89 0
-5 -103 0
-5 -117 0
-5 -131 0
-5 -145 0
-5 -159 0
-5 -173 0
-5 -187 0
-6 -7 0
-6 -8 0
-6 -9 0
-6 -10 0
-6 -11 0
-6 -12 0
-6 -13 0
-6 -14 0
-6 -19 0
-6 -20 0
-6 -21 0
-6 -34 0
-6 -48 0
-6 -62 0
-6 -76 0
-6 -90 0
-6 -104 0
-6 -118 0
-6 -132 0
-6 -146 0
-6 -160 0
-6 -174 0
-6 -188 0
-7 -8 0
-7 -9 0
-7 -10 0
-7 -11 0
-7 -12 0
-7 -13 0
-7 -14 0
-7 -20 0
-7 -21 0
-7 -22 0
-7 -35 0
-7 -49 0
-7 -63 0
-7 -77 0
-7 -91 0
-7 -105 0
-7 -119 0
-7 -133 0
-7 -147 0
-7 -161 0
-7 -175 0
-7 -189 0
-8 -9 0
-8 -10 0
-8 -11 0
-8 -12 0
-8 -13 0
-8 -14 0
-8 -21 0
-8 -22 0
-8 -23 0
-8 -36 0
-8 -50 0
-8 -64 0
-8 -78 0
-8 -92 0
-8 -106 0
-8 -120 0
-8 -134 0
-8 -148 0
-8 -162 0
-8 -176 0
-8 -190 0
-9 -10 0
-9 -11 0
-9 -12 0
-9 -13 0
-9 -14 0
-9 -22 0
-9 -23 0
-9 -24 0
-9 -37 0
-9 -51 0
-9 -65 0
-9 -79 0
-9 -93 0
-9 -107 0
-9 -121 0
-9 -135 0
-9 -149 0
-9 -163 0
-9 -177 0
-9 -191 0
-10 -11 0
-10 -12 0
-10 -13 0
-10 -14 0
-10 -23 0
-10 -24 0
-10 -25 0
-10 -38 0
-10 -52 0
-10 -66 0
-10 -80 0
-10 -94 0
-10 -108 0
-10 -122 0
-10 -136 0
-10 -150 0
-10 -164 0
-10 -178 0
-10 -192 0
-11 -12 0
-11 -13 0
-11 -14 0
-11 -24 0
-11 -25 0
-11 -26 0
-11 -27 0
-11 -28 0
-11 -39 0
-11 -40 0
-11 -41 0
-11 -42 0
-11 -53 0
-11 -54 0
-11 -55 0
-11 -56 0
-11 -67 0
-11 -68 0
-11 -69 0
-11 -70 0
-11 -81 0
-11 -82 0
-11 -83 0
-11 -84 0
-11 -95 0
-11 -96 0
-11 -97 0
-11 -98 0
-11 -109 0
-11 -110 0
-11 -123 0
-11 -137 0
-11 -151 0
-11 -165 0
-11 -179 0
-11 -193 0
-12 -13 0
-12 -14 0
-12 -24 0
-12 -25 0
-12 -26 0
-12 -27 0
-12 -28 0
-12 -39 0
-12 -40 0
-12 -41 0
-12 -42 0
-12 -53 0
-12 -54 0
-12 -55 0
-12 -56 0
-12 -67 0
-12 -68 0
-12 -69 0
-12 -70 0
-12 -81 0
-12 -82 0
-12 -83 0
-12 -84 0
-12 -95 0
-12 -96 0
-12 -97 0
-12 -98 0
-12 -109 0
-12 -110 0
-12 -124 0
-12 -138 0
-12 -152 0
-12 -166 0
-12 -180 0
-12 -194 0
-13 -14 0
-13 -24 0
-13 -25 0
-13 -26 0
-13 -27 0
-13 -28 0
-13 -39 0
-13 -40 0
-13 -41 0
-13 -42 0
-13 -53 0
-13 -54 0
-13 -55 0
-13 -56 0
-13 -67 0
-13 -68 0
-13 -69 0
-13 -70 0
-13 -81 0
-13 -82 0
-13 -83 0
-13 -84 0
-13 -95 0
-13 -96 0
-13 -97 0
-13 -98 0
-13 -109 0
-13 -110 0
-13 -111 0
-13 -125 0
-13 -139 0
-13 -153 0
-13 -167 0
-13 -181 0
-13 -195 0
-14 -24 0
-14 -25 0
-14 -26 0
-14 -27 0
-14 -28 0
-14 -39 0
-14 -40 0
-14 -41 0
-14 -42 0
-14 -53 0
-14 -54 0
-14 -55 0
-14 -56 0
-14 -67 0
-14 -68 0
-14 -69 0
-14 -70 0
-14 -81 0
-14 -82 0
-14 -83 0
-14 -84 0
-14 -95 0
-14 -96 0
-14 -97 0
-14 -98 0
-14 -109 0
-14 -110 0
-14 -112 0
-14 -126 0
-14 -140 0
-14 -154 0
-14 -168 0
-14 -182 0
-14 -196 0
-15 -16 0
-15 -17 0
-15 -18 0
-15 -19 0
-15 -20 0
-15 -21 0
-15 -22 0
-15 -23 0
-15 -24 0
-15 -25 0
-15 -26 0
-15 -27 0
-15 -28 0
-15 -29 0
-15 -30 0
-15 -43 0
-15 -57 0
-15 -71 0
-15 -85 0
-15 -99 0
-15 -113 0
-15 -127 0
-15 -141 0
-15 -155 0
-15 -169 0
-15 -183 0
-16 -17 0
-16 -18 0
-16 -19 0
-16 -20 0
-16 -21 0
-16 -22 0
-16 -23 0
-16 -24 0
-16 -25 0
-16 -26 0
-16 -27 0
-16 -28 0
-16 -29 0
-16 -30 0
-16 -31 0
-16 -44 0
-16 -58 0
-16 -72 0
-16 -86 0
-16 -100 0
-16 -114 0
-16 -128 0
-16 -142 0
-16 -156 0
-16 -170 0
-16 -184 0
-17 -18 0
-17 -19 0
-17 -20 0
-17 -21 0
-17 -22 0
-17 -23 0
-17 -24 0
-17 -25 0
-17 -26 0
-17 -27 0
-17 -28 0
-17 -30 0
-17 -31 0
-17 -32 0
-17 -33 0
-17 -45 0
-17 -59 0
-17 -73 0
-17 -87 0
-17 -101 0
-17 -115 0
-17 -129 0
-17 -143 0
-17 -157 0
-17 -171 0
-17 -185 0
-18 -19 0
-18 -20 0
-18 -21 0
-18 -22 0
-18 -23 0
-18 -24 0
-18 -25 0
-18 -26 0
-18 -27 0
-18 -28 0
-18 -31 0
-18 -32 0
-18 -33 0
-18 -46 0
-18 -60 0
-18 -74 0
-18 -88 0
-18 -102 0
-18 -116 0
-18 -130 0
-18 -144 0
-18 -158 0
-18 -172 0
-18 -186 0
-19 -20 0
-19 -21 0
-19 -22 0
-19 -23 0
-19 -24 0
-19 -25 0
-19 -26 0
-19 -27 0
-19 -28 0
-19 -31 0
-19 -32 0
-19 -33 0
-19 -34 0
-19 -47 0
-19 -61 0
-19 -75 0
-19 -89 0
-19 -103 0
-19 -117 0
-19 -131 0
-19 -145 0
-19 -159 0
-19 -173 0
-19 -187 0
-20 -21 0
-20 -22 0
-20 -23 0
-20 -24 0
-20 -25 0
-20 -26 0
-20 -27 0
-20 -28 0
-20 -31 0
-20 -32 0
-20 -33 0
-20 -34 0
-20 -35 0
-20 -48 0
-20 -62 0
-20 -76 0
-20 -90 0
-20 -104 0
-20 -118 0
-20 -132 0
-20 -146 0
-20 -160 0
-20 -174 0
-20 -188 0
-21 -22 0
-21 -23 0
-21 -24 0
-21 -25 0
-21 -26 0
-21 -27 0
-21 -28 0
-21 -34 0
-21 -35 0
-21 -36 0
-21 -49 0
-21 -63 0
-21 -77 0
-21 -91 0
-21 -105 0
-21 -119 0
-21 -133 0
-21 -147 0
-21 -161 0
-21 -175 0
-21 -189 0
-22 -23 0
-22 -24 0
-22 -25 0
-22 -26 0
-22 -27 0
-22 -28 0
-22 -35 0
-22 -36 0
-22 -37 0
-22 -50 0
-22 -64 0
-22 -78 0
-22 -92 0
-22 -106 0
-22 -120 0
-22 -134 0
-22 -148 0
-22 -162 0
-22 -176 0
-22 -190 0
-23 -24 0
-23 -25 0
-23 -26 0
-23 -27 0
-23 -28 0
-23 -36 0
-23 -37 0
-23 -38 0
-23 -51 0
-23 -65 0
-23 -79 0
-23 -93 0
-23 -107 0
-23 -121 0
-23 -135 0
-23 -149 0
-23 -163 0
-23 -177 0
-23 -191 0
-24 -25 0
-24 -26 0
-24 -27 0
-24 -28 0
-24 -37 0
-24 -38 0
-24 -39 0
-24 -40 0
-24 -41 0
-24 -42 0
-24 -52 0
-24 -53 0
-24 -54 0
-24 -55 0
-24 -56 0
-24 -66 0
-24 -67 0
-24 -68 0
-24 -69 0
-24 -70 0
-24 -80 0
-24 -81 0
-24 -82 0
-24 -83 0
-24 -84 0
-24 -94 0
-24 -95 0
-24 -96 0
-24 -97 0
-24 -98 0
-24 -108 0
-24 -109 0
-24 -110 0
-24 -122 0
-24 -136 0
-24 -150 0
-24 -164 0
-24 -178 0
-24 -192 0
-25 -26 0
-25 -27 0
-25 -28 0
-25 -38 0
-25 -39 0
-25 -40 0
-25 -41 0
-25 -42 0
-25 -53 0
-25 -54 0
-25 -55 0
-25 -56 0
-25 -67 0
-25 -68 0
-25 -69 0
-25 -70 0
-25 -81 0
-25 -82 0
-25 -83 0
-25 -84 0
-25 -95 0
-25 -96 0
-25 -97 0
-25 -98 0
-25 -109 0
-25 -110 0
-25 -123 0
-25 -137 0
-25 -151 0
-25 -165 0
-25 -179 0
-25 -193 0
-26 -27 0
-26 -28 0
-26 -39 0
-26 -40 0
-26 -41 0
-26 -42 0
-26 -53 0
-26 -54 0
-26 -55 0
-26 -56 0
-26 -67 0
-26 -68 0
-26 -69 0
-26 -70 0
-26 -81 0
-26 -82 0
-26 -83 0
-26 -84 0
-26 -95 0
-26 -96 0
-26 -97 0
-26 -98 0
-26 -109 0
-26 -110 0
-26 -124 0
-26 -138 0
-26 -152 0
-26 -166 0
-26 -180 0
-26 -194 0
-27 -28 0
-27 -39 0
-27 -40 0
-27 -41 0
-27 -42 0
-27 -53 0
-27 -54 0
-27 -55 0
-27 -56 0
-27 -67 0
-27 -68 0
-27 -69 0
-27 -70 0
-27 -81 0
-27 -82 0
-27 -83 0
-27 -84 0
-27 -95 0
-27 -96 0
-27 -97 0
-27 -98 0
-27 -109 0
-27 -110 0
-27 -111 0
-27 -125 0
-27 -139 0
-27 -153 0
-27 -167 0
-27 -181 0
-27 -195 0
-28 -39 0
-28 -40 0
-28 -41 0
-28 -42 0
-28 -53 0
-28 -54 0
-28 -55 0
-28 -56 0
-28 -67 0
-28 -68 0
-28 -69 0
-28 -70 0
-28 -81 0
-28 -82 0
-28 -83 0
-28 -84 0
-28 -95 0
-28 -96 0
-28 -97 0
-28 -98 0
-28 -109 0
-28 -110 0
-28 -112 0
-28 -126 0
-28 -140 0
-28 -154 0
-28 -168 0
-28 -182 0
-28 -196 0
-29 -30 0
-29 -31 0
-29 -32 0
-29 -33 0
-29 -34 0
-29 -35 0
-29 -36 0
-29 -37 0
-29 -38 0
-29 -39 0
-29 -40 0
-29 -41 0
-29 -42 0
-29 -43 0
-29 -44 0
-29 -45 0
-29 -46 0
-29 -47 0
-29 -57 0
-29 -58 0
-29 -59 0
-29 -60 0
-29 -61 0
-29 -71 0
-29 -72 0
-29 -73 0
-29 -74 0
-29 -75 0
-29 -85 0
-29 -86 0
-29 -87 0
-29 -88 0
-29 -89 0
-29 -90 0
-29 -91 0
-29 -93 0
-29 -94 0
-29 -99 0
-29 -100 0
-29 -101 0
-29 -102 0
-29 -103 0
-29 -104 0
-29 -105 0
-29 -106 0
-29 -107 0
-29 -108 0
-29 -113 0
-29 -114 0
-29 -115 0
-29 -116 0
-29 -117 0
-29 -118 0
-29 -119 0
-29 -120 0
-29 -121 0
-29 -122 0
-29 -127 0
-29 -131 0
-29 -132 0
-29 -133 0
-29 -134 0
-29 -141 0
-29 -148 0
-29 -149 0
-29 -150 0
-29 -151 0
-29 -155 0
-29 -162 0
-29 -163 0
-29 -164 0
-29 -165 0
-29 -169 0
-29 -183 0
-30 -31 0
-30 -32 0
-30 -33 0
-30 -34 0
-30 -35 0
-30 -36 0
-30 -37 0
-30 -38 0
-30 -39 0
-30 -40 0
-30 -41 0
-30 -42 0
-30 -43 0
-30 -44 0
-30 -45 0
-30 -46 0
-30 -47 0
-30 -57 0
-30 -58 0
-30 -59 0
-30 -60 0
-30 -61 0
-30 -71 0
-30 -72 0
-30 -73 0
-30 -74 0
-30 -75 0
-30 -85 0
-30 -86 0
-30 -87 0
-30 -88 0
-30 -89 0
-30 -90 0
-30 -91 0
-30 -93 0
-30 -94 0
-30 -99 0
-30 -100 0
-30 -101 0
-30 -102 0
-30 -103 0
-30 -104 0
-30 -105 0
-30 -106 0
-30 -107 0
-30 -108 0
-30 -114 0
-30 -115 0
-30 -116 0
-30 -117 0
-30 -118 0
-30 -119 0
-30 -120 0
-30 -121 0
-30 -122 0
-30 -128 0
-30 -131 0
-30 -132 0
-30 -133 0
-30 -134 0
-30 -142 0
-30 -148 0
-30 -149 0
-30 -150 0
-30 -151 0
-30 -156 0
-30 -162 0
-30 -163 0
-30 -164 0
-30 -165 0
-30 -170 0
-30 -184 0
-31 -32 0
-31 -33 0
-31 -34 0
-31 -35 0
-31 -36 0
-31 -37 0
-31 -38 0
-31 -39 0
-31 -40 0
-31 -41 0
-31 -42 0
-31 -44 0
-31 -45 0
-31 -46 0
-31 -59 0
-31 -73 0
-31 -87 0
-31 -101 0
-31 -115 0
-31 -129 0
-31 -143 0
-31 -157 0
-31 -171 0
-31 -185 0
-32 -33 0
-32 -34 0
-32 -35 0
-32 -36 0
-32 -37 0
-32 -38 0
-32 -39 0
-32 -40 0
-32 -41 0
-32 -42 0
-32 -45 0
-32 -46 0
-32 -47 0
-32 -60 0
-32 -74 0
-32 -88 0
-32 -102 0
-32 -116 0
-32 -130 0
-32 -144 0
-32 -158 0
-32 -172 0
-32 -186 0
-33 -34 0
-33 -35 0
-33 -36 0
-33 -37 0
-33 -38 0
-33 -39 0
-33 -40 0
-33 -41 0
-33 -42 0
-33 -46 0
-33 -47 0
-33 -48 0
-33 -61 0
-33 -75 0
-33 -89 0
-33 -103 0
-33 -117 0
-33 -131 0
-33 -145 0
-33 -159 0
-33 -173 0
-33 -187 0
-34 -35 0
-34 -36 0
-34 -37 0
-34 -38 0
-34 -39 0
-34 -40 0
-34 -41 0
-34 -42 0
-34 -47 0
-34 -48 0
-34 -49 0
-34 -62 0
-34 -76 0
-34 -90 0
-34 -104 0
-34 -118 0
-34 -132 0
-34 -146 0
-34 -160 0
-34 -174 0
-34 -188 0
-35 -36 0
-35 -37 0
-35 -38 0
-35 -39 0
-35 -40 0
-35 -41 0
-35 -42 0
-35 -48 0
-35 -49 0
-35 -50 0
-35 -63 0
-35 -77 0
-35 -91 0
-35 -105 0
-35 -119 0
-35 -133 0
-35 -147 0
-35 -161 0
-35 -175 0
-35 -189 0
-36 -37 0
-36 -38 0
-36 -39 0
-36 -40 0
-36 -41 0
-36 -42 0
-36 -49 0
-36 -50 0
-36 -51 0
-36 -64 0
-36 -78 0
-36 -92 0
-36 -106 0
-36 -120 0
-36 -134 0
-36 -148 0
-36 -162 0
-36 -176 0
-36 -190 0
-37 -38 0
-37 -39 0
-37 -40 0
-37 -41 0
-37 -42 0
-37 -48 0
-37 -49 0
-37 -50 0
-37 -51 0
-37 -52 0
-37 -62 0
-37 -63 0
-37 -64 0
-37 -65 0
-37 -66 0
-37 -76 0
-37 -77 0
-37 -78 0
-37 -79 0
-37 -80 0
-37 -92 0
-37 -93 0
-37 -107 0
-37 -121 0
-37 -135 0
-37 -149 0
-37 -163 0
-37 -177 0
-37 -191 0
-38 -39 0
-38 -40 0
-38 -41 0
-38 -42 0
-38 -48 0
-38 -49 0
-38 -50 0
-38 -51 0
-38 -52 0
-38 -53 0
-38 -62 0
-38 -63 0
-38 -64 0
-38 -65 0
-38 -66 0
-38 -76 0
-38 -77 0
-38 -78 0
-38 -79 0
-38 -80 0
-38 -92 0
-38 -94 0
-38 -108 0
-38 -122 0
-38 -136 0
-38 -150 0
-38 -164 0
-38 -178 0
-38 -192 0
-39 -40 0
-39 -41 0
-39 -42 0
-39 -52 0
-39 -53 0
-39 -54 0
-39 -55 0
-39 -56 0
-39 -67 0
-39 -68 0
-39 -69 0
-39 -70 0
-39 -81 0
-39 -82 0
-39 -83 0
-39 -84 0
-39 -95 0
-39 -96 0
-39 -97 0
-39 -98 0
-39 -109 0
-39 -110 0
-39 -123 0
-39 -137 0
-39 -151 0
-39 -165 0
-39 -179 0
-39 -193 0
-40 -41 0
-40 -42 0
-40 -53 0
-40 -54 0
-40 -55 0
-40 -56 0
-40 -67 0
-40 -68 0
-40 -69 0
-40 -70 0
-40 -81 0
-40 -82 0
-40 -83 0
-40 -84 0
-40 -95 0
-40 -96 0
-40 -97 0
-40 -98 0
-40 -109 0
-40 -110 0
-40 -124 0
-40 -138 0
-40 -152 0
-40 -166 0
-40 -180 0
-40 -194 0
-41 -42 0
-41 -53 0
-41 -54 0
-41 -55 0
-41 -56 0
-41 -67 0
-41 -68 0
-41 -69 0
-41 -70 0
-41 -81 0
-41 -82 0
-41 -83 0
-41 -84 0
-41 -95 0
-41 -96 0
-41 -97 0
-41 -98 0
-41 -109 0
-41 -110 0
-41 -111 0
-41 -125 0
-41 -139 0
-41 -153 0
-41 -167 0
-41 -181 0
-41 -195 0
-42 -53 0
-42 -54 0
-42 -55 0
-42 -56 0
-42 -67 0
-42 -68 0
-42 -69 0
-42 -70 0
-42 -81 0
-42 -82 0
-42 -83 0
-42 -84 0
-42 -95 0
-42 -96 0
-42 -97 0
-42 -98 0
-42 -109 0
-42 -110 0
-42 -112 0
-42 -126 0
-42 -140 0
-42 -154 0
-42 -168 0
-42 -182 0
-42 -196 0
-43 -44 0
-43 -45 0
-43 -46 0
-43 -47 0
-43 -48 0
-43 -49 0
-43 -50 0
-43 -51 0
-43 -52 0
-43 -53 0
-43 -54 0
-43 -55 0
-43 -56 0
-43 -57 0
-43 -58 0
-43 -59 0
-43 -60 0
-43 -61 0
-43 -71 0
-43 -72 0
-43 -73 0
-43 -74 0
-43 -75 0
-43 -85 0
-43 -86 0
-43 -87 0
-43 -88 0
-43 -89 0
-43 -90 0
-43 -91 0
-43 -93 0
-43 -94 0
-43 -99 0
-43 -100 0
-43 -101 0
-43 -102 0
-43 -103 0
-43 -104 0
-43 -105 0
-43 -106 0
-43 -107 0
-43 -108 0
-43 -113 0
-43 -114 0
-43 -115 0
-43 -116 0
-43 -117 0
-43 -118 0
-43 -119 0
-43 -120 0
-43 -121 0
-43 -122 0
-43 -127 0
-43 -131 0
-43 -132 0
-43 -133 0
-43 -134 0
-43 -141 0
-43 -148 0
-43 -149 0
-43 -150 0
-43 -151 0
-43 -155 0
-43 -162 0
-43 -163 0
-43 -164 0
-43 -165 0
-43 -169 0
-43 -183 0
-44 -45 0
-44 -46 0
-44 -47 0
-44 -48 0
-44 -49 0
-44 -50 0
-44 -51 0
-44 -52 0
-44 -53 0
-44 -54 0
-44 -55 0
-44 -56 0
-44 -57 0
-44 -58 0
-44 -59 0
-44 -60 0
-44 -61 0
-44 -71 0
-44 -72 0
-44 -73 0
-44 -74 0
-44 -75 0
-44 -85 0
-44 -86 0
-44 -87 0
-44 -88 0
-44 -89 0
-44 -90 0
-44 -91 0
-44 -93 0
-44 -94 0
-44 -99 0
-44 -100 0
-44 -101 0
-44 -102 0
-44 -103 0
-44 -104 0
-44 -105 0
-44 -106 0
-44 -107 0
-44 -108 0
-44 -114 0
-44 -115 0
-44 -116 0
-44 -117 0
-44 -118 0
-44 -119 0
-44 -120 0
-44 -121 0
-44 -122 0
-44 -128 0
-44 -131 0
-44 -132 0
-44 -133 0
-44 -134 0
-44 -142 0
-44 -148 0
-44 -149 0
-44 -150 0
-44 -151 0
-44 -156 0
-44 -162 0
-44 -163 0
-44 -164 0
-44 -165 0
-44 -170 0
-44 -184 0
-45 -46 0
-45 -47 0
-45 -48 0
-45 -49 0
-45 -50 0
-45 -51 0
-45 -52 0
-45 -53 0
-45 -54 0
-45 -55 0
-45 -56 0
-45 -57 0
-45 -58 0
-45 -59 0
-45 -60 0
-45 -61 0
-45 -71 0
-45 -72 0
-45 -73 0
-45 -74 0
-45 -75 0
-45 -85 0
-45 -86 0
-45 -87 0
-45 -88 0
-45 -89 0
-45 -90 0
-45 -91 0
-45 -93 0
-45 -94 0
-45 -99 0
-45 -100 0
-45 -101 0
-45 -102 0
-45 -103 0
-45 -104 0
-45 -105 0
-45 -106 0
-45 -107 0
-45 -108 0
-45 -114 0
-45 -115 0
-45 -116 0
-45 -117 0
-45 -118 0
-45 -119 0
-45 -120 0
-45 -121 0
-45 -122 0
-45 -129 0
-45 -131 0
-45 -132 0
-45 -133 0
-45 -134 0
-45 -143 0
-45 -148 0
-45 -149 0
-45 -150 0
-45 -151 0
-45 -157 0
-45 -162 0
-45 -163 0
-45 -164 0
-45 -165 0
-45 -171 0
-45 -185 0
-46 -47 0
-46 -48 0
-46 -49 0
-46 -50 0
-46 -51 0
-46 -52 0
-46 -53 0
-46 -54 0
-46 -55 0
-46 -56 0
-46 -57 0
-46 -58 0
-46 -59 0
-46 -60 0
-46 -61 0
-46 -71 0
-46 -72 0
-46 -73 0
-46 -74 0
-46 -75 0
-46 -85 0
-46 -86 0
-46 -87 0
-46 -88 0
-46 -89 0
-46 -90 0
-46 -91 0
-46 -93 0
-46 -94 0
-46 -99 0
-46 -100 0
-46 -101 0
-46 -102 0
-46 -103 0
-46 -104 0
-46 -105 0
-46 -106 0
-46 -107 0
-46 -108 0
-46 -114 0
-46 -115 0
-46 -116 0
-46 -117 0
-46 -118 0
-46 -119 0
-46 -120 0
-46 -121 0
-46 -122 0
-46 -130 0
-46 -131 0
-46 -132 0
-46 -133 0
-46 -134 0
-46 -144 0
-46 -148 0
-46 -149 0
-46 -150 0
-46 -151 0
-46 -158 0
-46 -162 0
-46 -163 0
-46 -164 0
-46 -165 0
-46 -172 0
-46 -186 0
-47 -48 0
-47 -49 0
-47 -50 0
-47 -51 0
-47 -52 0
-47 -53 0
-47 -54 0
-47 -55 0
-47 -56 0
-47 -57 0
-47 -58 0
-47 -59 0
-47 -60 0
-47 -61 0
-47 -62 0
-47 -71 0
-47 -72 0
-47 -73 0
-47 -74 0
-47 -75 0
-47 -85 0
-47 -86 0
-47 -87 0
-47 -88 0
-47 -89 0
-47 -90 0
-47 -91 0
-47 -93 0
-47 -94 0
-47 -99 0
-47 -100 0
-47 -101 0
-47 -102 0
-47 -103 0
-47 -104 0
-47 -105 0
-47 -106 0
-47 -107 0
-47 -108 0
-47 -114 0
-47 -115 0
-47 -116 0
-47 -117 0
-47 -118 0
-47 -119 0
-47 -120 0
-47 -121 0
-47 -122 0
-47 -131 0
-47 -132 0
-47 -133 0
-47 -134 0
-47 -145 0
-47 -148 0
-47 -149 0
-47 -150 0
-47 -151 0
-47 -159 0
-47 -162 0
-47 -163 0
-47 -164 0
-47 -165 0
-47 -173 0
-47 -187 0
-48 -49 0
-48 -50 0
-48 -51 0
-48 -52 0
-48 -53 0
-48 -54 0
-48 -55 0
-48 -56 0
-48 -61 0
-48 -62 0
-48 -63 0
-48 -64 0
-48 -65 0
-48 -66 0
-48 -76 0
-48 -77 0
-48 -78 0
-48 -79 0
-48 -80 0
-48 -90 0
-48 -92 0
-48 -104 0
-48 -118 0
-48 -132 0
-48 -146 0
-48 -160 0
-48 -174 0
-48 -188 0
-49 -50 0
-49 -51 0
-49 -52 0
-49 -53 0
-49 -54 0
-49 -55 0
-49 -56 0
-49 -62 0
-49 -63 0
-49 -64 0
-49 -65 0
-49 -66 0
-49 -76 0
-49 -77 0
-49 -78 0
-49 -79 0
-49 -80 0
-49 -91 0
-49 -92 0
-49 -105 0
-49 -119 0
-49 -133 0
-49 -147 0
-49 -161 0
-49 -175 0
-49 -189 0
-50 -51 0
-50 -52 0
-50 -53 0
-50 -54 0
-50 -55 0
-50 -56 0
-50 -62 0
-50 -63 0
-50 -64 0
-50 -65 0
-50 -66 0
-50 -76 0
-50 -77 0
-50 -78 0
-50 -79 0
-50 -80 0
-50 -92 0
-50 -106 0
-50 -120 0
-50 -134 0
-50 -148 0
-50 -162 0
-50 -176 0
-50 -190 0
-51 -52 0
-51 -53 0
-51 -54 0
-51 -55 0
-51 -56 0
-51 -62 0
-51 -63 0
-51 -64 0
-51 -65 0
-51 -66 0
-51 -76 0
-51 -77 0
-51 -78 0
-51 -79 0
-51 -80 0
-51 -92 0
-51 -93 0
-51 -107 0
-51 -121 0
-51 -135 0
-51 -149 0
-51 -163 0
-51 -177 0
-51 -191 0
-52 -53 0
-52 -54 0
-52 -55 0
-52 -56 0
-52 -62 0
-52 -63 0
-52 -64 0
-52 -65 0
-52 -66 0
-52 -67 0
-52 -76 0
-52 -77 0
-52 -78 0
-52 -79 0
-52 -80 0
-52 -92 0
-52 -94 0
-52 -108 0
-52 -122 0
-52 -136 0
-52 -150 0
-52 -164 0
-52 -178 0
-52 -192 0
-53 -54 0
-53 -55 0
-53 -56 0
-53 -66 0
-53 -67 0
-53 -68 0
-53 -69 0
-53 -70 0
-53 -81 0
-53 -82 0
-53 -83 0
-53 -84 0
-53 -95 0
-53 -96 0
-53 -97 0
-53 -98 0
-53 -109 0
-53 -110 0
-53 -123 0
-53 -137 0
-53 -151 0
-53 -165 0
-53 -179 0
-53 -193 0
-54 -55 0
-54 -56 0
-54 -67 0
-54 -68 0
-54 -69 0
-54 -70 0
-54 -81 0
-54 -82 0
-54 -83 0
-54 -84 0
-54 -95 0
-54 -96 0
-54 -97 0
-54 -98 0
-54 -109 0
-54 -110 0
-54 -124 0
-54 -138 0
-54 -152 0
-54 -166 0
-54 -180 0
-54 -194 0
-55 -56 0
-55 -67 0
-55 -68 0
-55 -69 0
-55 -70 0
-55 -81 0
-55 -82 0
-55 -83 0
-55 -84 0
-55 -95 0
-55 -96 0
-55 -97 0
-55 -98 0
-55 -109 0
-55 -110 0
-55 -111 0
-55 -125 0
-55 -139 0
-55 -153 0
-55 -167 0
-55 -181 0
-55 -195 0
-56 -67 0
-56 -68 0
-56 -69 0
-56 -70 0
-56 -81 0
-56 -82 0
-56 -83 0
-56 -84 0
-56 -95 0
-56 -96 0
-56 -97 0
-56 -98 0
-56 -109 0
-56 -110 0
-56 -112 0
-56 -126 0
-56 -140 0
-56 -154 0
-56 -168 0
-56 -182 0
-56 -196 0
-57 -58 0
-57 -59 0
-57 -60 0
-57 -61 0
-57 -62 0
-57 -63 0
-57 -64 0
-57 -65 0
-57 -66 0
-57 -67 0
-57 -68 0
-57 -69 0
-57 -70 0
-57 -71 0
-57 -72 0
-57 -73 0
-57 -74 0
-57 -75 0
-57 -85 0
-57 -86 0
-57 -87 0
-57 -88 0
-57 -89 0
-57 -90 0
-57 -91 0
-57 -93 0
-57 -94 0
-57 -99 0
-57 -100 0
-57 -101 0
-57 -102 0
-57 -103 0
-57 -104 0
-57 -105 0
-57 -106 0
-57 -107 0
-57 -108 0
-57 -113 0
-57 -114 0
-57 -115 0
-57 -116 0
-57 -117 0
-57 -118 0
-57 -119 0
-57 -120 0
-57 -121 0
-57 -122 0
-57 -127 0
-57 -131 0
-57 -132 0
-57 -133 0
-57 -134 0
-57 -141 0
-57 -148 0
-57 -149 0
-57 -150 0
-57 -151 0
-57 -155 0
-57 -162 0
-57 -163 0
-57 -164 0
-57 -165 0
-57 -169 0
-57 -183 0
-58 -59 0
-58 -60 0
-58 -61 0
-58 -62 0
-58 -63 0
-58 -64 0
-58 -65 0
-58 -66 0
-58 -67 0
-58 -68 0
-58 -69 0
-58 -70 0
-58 -71 0
-58 -72 0
-58 -73 0
-58 -74 0
-58 -75 0
-58 -85 0
-58 -86 0
-58 -87 0
-58 -88 0
-58 -89 0
-58 -90 0
-58 -91 0
-58 -93 0
-58 -94 0
-58 -99 0
-58 -100 0
-58 -101 0
-58 -102 0
-58 -103 0
-58 -104 0
-58 -105 0
-58 -106 0
-58 -107 0
-58 -108 0
-58 -114 0
-58 -115 0
-58 -116 0
-58 -117 0
-58 -118 0
-58 -119 0
-58 -120 0
-58 -121 0
-58 -122 0
-58 -128 0
-58 -131 0
-58 -132 0
-58 -133 0
-58 -134 0
-58 -142 0
-58 -148 0
-58 -149 0
-58 -150 0
-58 -151 0
-58 -156 0
-58 -162 0
-58 -163 0
-58 -164 0
-58 -165 0
-58 -170 0
-58 -184 0
-59 -60 0
-59 -61 0
-59 -62 0
-59 -63 0
-59 -64 0
-59 -65 0
-59 -66 0
-59 -67 0
-59 -68 0
-59 -69 0
-59 -70 0
-59 -71 0
-59 -72 0
-59 -73 0
-59 -74 0
-59 -75 0
-59 -85 0
-59 -86 0
-59 -87 0
-59 -88 0
-59 -89 0
-59 -90 0
-59 -91 0
-59 -93 0
-59 -94 0
-59 -99 0
-59 -100 0
-59 -101 0
-59 -102 0
-59 -103 0
-59 -104 0
-59 -105 0
-59 -106 0
-59 -107 0
-59 -108 0
-59 -114 0
-59 -115 0
-59 -116 0
-59 -117 0
-59 -118 0
-59 -119 0
-59 -120 0
-59 -121 0
-59 -122 0
-59 -129 0
-59 -131 0
-59 -132 0
-59 -133 0
-59 -134 0
-59 -143 0
-59 -148 0
-59 -149 0
-59 -150 0
-59 -151 0
-59 -157 0
-59 -162 0
-59 -163 0
-59 -164 0
-59 -165 0
-59 -171 0
-59 -185 0
-60 -61 0
-60 -62 0
-60 -63 0
-60 -64 0
-60 -65 0
-60 -66 0
-60 -67 0
-60 -68 0
-60 -69 0
-60 -70 0
-60 -71 0
-60 -72 0
-60 -73 0
-60 -74 0
-60 -75 0
-60 -85 0
-60 -86 0
-60 -87 0
-60 -88 0
-60 -89 0
-60 -90 0
-60 -91 0
-60 -93 0
-60 -94 0
-60 -99 0
-60 -100 0
-60 -101 0
-60 -102 0
-60 -103 0
-60 -104 0
-60 -105 0
-60 -106 0
-60 -107 0
-60 -108 0
-60 -114 0
-60 -115 0
-60 -116 0
-60 -117 0
-60 -118 0
-60 -119 0
-60 -120 0
-60 -121 0
-60 -122 0
-60 -130 0
-60 -131 0
-60 -132 0
-60 -133 0
-60 -134 0
-60 -144 0
-60 -148 0
-60 -149 0
-60 -150 0
-60 -151 0
-60 -158 0
-60 -162 0
-60 -163 0
-60 -164 0
-60 -165 0
-60 -172 0
-60 -186 0
-61 -62 0
-61 -63 0
-61 -64 0
-61 -65 0
-61 -66 0
-61 -67 0
-61 -68 0
-61 -69 0
-61 -70 0
-61 -71 0
-61 -72 0
-61 -73 0
-61 -74 0
-61 -75 0
-61 -76 0
-61 -85 0
-61 -86 0
-61 -87 0
-61 -88 0
-61 -89 0
-61 -90 0
-61 -91 0
-61 -93 0
-61 -94 0
-61 -99 0
-61 -100 0
-61 -101 0
-61 -102 0
-61 -103 0
-61 -104 0
-61 -105 0
-61 -106 0
-61 -107 0
-61 -108 0
-61 -114 0
-61 -115 0
-61 -116 0
-61 -117 0
-61 -118 0
-61 -119 0
-61 -120 0
-61 -121 0
-61 -122 0
-61 -131 0
-61 -132 0
-61 -133 0
-61 -134 0
-61 -145 0
-61 -148 0
-61 -149 0
-61 -150 0
-61 -151 0
-61 -159 0
-61 -162 0
-61 -163 0
-61 -164 0
-61 -165 0
-61 -173 0
-61 -187 0
-62 -63 0
-62 -64 0
-62 -65 0
-62 -66 0
-62 -67 0
-62 -68 0
-62 -69 0
-62 -70 0
-62 -75 0
-62 -76 0
-62 -77 0
-62 -78 0
-62 -79 0
-62 -80 0
-62 -90 0
-62 -92 0
-62 -104 0
-62 -118 0
-62 -132 0
-62 -146 0
-62 -160 0
-62 -174 0
-62 -188 0
-63 -64 0
-63 -65 0
-63 -66 0
-63 -67 0
-63 -68 0
-63 -69 0
-63 -70 0
-63 -76 0
-63 -77 0
-63 -78 0
-63 -79 0
-63 -80 0
-63 -91 0
-63 -92 0
-63 -105 0
-63 -119 0
-63 -133 0
-63 -147 0
-63 -161 0
-63 -175 0
-63 -189 0
-64 -65 0
-64 -66 0
-64 -67 0
-64 -68 0
-64 -69 0
-64 -70 0
-64 -76 0
-64 -77 0
-64 -78 0
-64 -79 0
-64 -80 0
-64 -92 0
-64 -106 0
-64 -120 0
-64 -134 0
-64 -148 0
-64 -162 0
-64 -176 0
-64 -190 0
-65 -66 0
-65 -67 0
-65 -68 0
-65 -69 0
-65 -70 0
-65 -76 0
-65 -77 0
-65 -78 0
-65 -79 0
-65 -80 0
-65 -92 0
-65 -93 0
-65 -107 0
-65 -121 0
-65 -135 0
-65 -149 0
-65 -163 0
-65 -177 0
-65 -191 0
-66 -67 0
-66 -68 0
-66 -69 0
-66 -70 0
-66 -76 0
-66 -77 0
-66 -78 0
-66 -79 0
-66 -80 0
-66 -81 0
-66 -92 0
-66 -94 0
-66 -108 0
-66 -122 0
-66 -136 0
-66 -150 0
-66 -164 0
-66 -178 0
-66 -192 0
-67 -68 0
-67 -69 0
-67 -70 0
-67 -80 0
-67 -81 0
-67 -82 0
-67 -83 0
-67 -84 0
-67 -95 0
-67 -96 0
-67 -97 0
-67 -98 0
-67 -109 0
-67 -110 0
-67 -123 0
-67 -137 0
-67 -151 0
-67 -165 0
-67 -179 0
-67 -193 0
-68 -69 0
-68 -70 0
-68 -81 0
-68 -82 0
-68 -83 0
-68 -84 0
-68 -95 0
-68 -96 0
-68 -97 0
-68 -98 0
-68 -109 0
-68 -110 0
-68 -124 0
-68 -138 0
-68 -152 0
-68 -166 0
-68 -180 0
-68 -194 0
-69 -70 0
-69 -81 0
-69 -82 0
-69 -83 0
-69 -84 0
-69 -95 0
-69 -96 0
-69 -97 0
-69 -98 0
-69 -109 0
-69 -110 0
-69 -111 0
-69 -125 0
-69 -139 0
-69 -153 0
-69 -167 0
-69 -181 0
-69 -195 0
-70 -81 0
-70 -82 0
-70 -83 0
-70 -84 0
-70 -95 0
-70 -96 0
-70 -97 0
-70 -98 0
-70 -109 0
-70 -110 0
-70 -112 0
-70 -126 0
-70 -140 0
-70 -154 0
-70 -168 0
-70 -182 0
-70 -196 0
-71 -72 0
-71 -73 0
-71 -74 0
-71 -75 0
-71 -76 0
-71 -77 0
-71 -78 0
-71 -79 0
-71 -80 0
-71 -81 0
-71 -82 0
-71 -83 0
-71 -84 0
-71 -85 0
-71 -86 0
-71 -87 0
-71 -88 0
-71 -89 0
-71 -90 0
-71 -91 0
-71 -93 0
-71 -94 0
-71 -99 0
-71 -100 0
-71 -101 0
-71 -102 0
-71 -103 0
-71 -104 0
-71 -105 0
-71 -106 0
-71 -107 0
-71 -108 0
-71 -113 0
-71 -114 0
-71 -115 0
-71 -116 0
-71 -117 0
-71 -118 0
-71 -119 0
-71 -120 0
-71 -121 0
-71 -122 0
-71 -127 0
-71 -131 0
-71 -132 0
-71 -133 0
-71 -134 0
-71 -141 0
-71 -148 0
-71 -149 0
-71 -150 0
-71 -151 0
-71 -155 0
-71 -162 0
-71 -163 0
-71 -164 0
-71 -165 0
-71 -169 0
-71 -183 0
-72 -73 0
-72 -74 0
-72 -75 0
-72 -76 0
-72 -77 0
-72 -78 0
-72 -79 0
-72 -80 0
-72 -81 0
-72 -82 0
-72 -83 0
-72 -84 0
-72 -85 0
-72 -86 0
-72 -87 0
-72 -88 0
-72 -89 0
-72 -90 0
-72 -91 0
-72 -93 0
-72 -94 0
-72 -99 0
-72 -100 0
-72 -101 0
-72 -102 0
-72 -103 0
-72 -104 0
-72 -105 0
-72 -106 0
-72 -107 0
-72 -108 0
-72 -114 0
-72 -115 0
-72 -116 0
-72 -117 0
-72 -118 0
-72 -119 0
-72 -120 0
-72 -121 0
-72 -122 0
-72 -128 0
-72 -131 0
-72 -132 0
-72 -133 0
-72 -134 0
-72 -142 0
-72 -148 0
-72 -149 0
-72 -150 0
-72 -151 0
-72 -156 0
-72 -162 0
-72 -163 0
-72 -164 0
-72 -165 0
-72 -170 0
-72 -184 0
-73 -74 0
-73 -75 0
-73 -76 0
-73 -77 0
-73 -78 0
-73 -79 0
-73 -80 0
-73 -81 0
-73 -82 0
-73 -83 0
-73 -84 0
-73 -85 0
-73 -86 0
-73 -87 0
-73 -88 0
-73 -89 0
-73 -90 0
-73 -91 0
-73 -93 0
-73 -94 0
-73 -99 0
-73 -100 0
-73 -101 0
-73 -102 0
-73 -103 0
-73 -104 0
-73 -105 0
-73 -106 0
-73 -107 0
-73 -108 0
-73 -114 0
-73 -115 0
-73 -116 0
-73 -117 0
-73 -118 0
-73 -119 0
-73 -120 0
-73 -121 0
-73 -122 0
-73 -129 0
-73 -131 0
-73 -132 0
-73 -133 0
-73 -134 0
-73 -143 0
-73 -148 0
-73 -149 0
-73 -150 0
-73 -151 0
-73 -157 0
-73 -162 0
-73 -163 0
-73 -164 0
-73 -165 0
-73 -171 0
-73 -185 0
-74 -75 0
-74 -76 0
-74 -77 0
-74 -78 0
-74 -79 0
-74 -80 0
-74 -81 0
-74 -82 0
-74 -83 0
-74 -84 0
-74 -85 0
-74 -86 0
-74 -87 0
-74 -88 0
-74 -89 0
-74 -90 0
-74 -91 0
-74 -93 0
-74 -94 0
-74 -99 0
-74 -100 0
-74 -101 0
-74 -102 0
-74 -103 0
-74 -104 0
-74 -105 0
-74 -106 0
-74 -107 0
-74 -108 0
-74 -114 0
-74 -115 0
-74 -116 0
-74 -117 0
-74 -118 0
-74 -119 0
-74 -120 0
-74 -121 0
-74 -122 0
-74 -130 0
-74 -131 0
-74 -132 0
-74 -133 0
-74 -134 0
-74 -144 0
-74 -148 0
-74 -149 0
-74 -150 0
-74 -151 0
-74 -158 0
-74 -162 0
-74 -163 0
-74 -164 0
-74 -165 0
-74 -172 0
-74 -186 0
-75 -76 0
-75 -77 0
-75 -78 0
-75 -79 0
-75 -80 0
-75 -81 0
-75 -82 0
-75 -83 0
-75 -84 0
-75 -85 0
-75 -86 0
-75 -87 0
-75 -88 0
-75 -89 0
-75 -90 0
-75 -91 0
-75 -93 0
-75 -94 0
-75 -99 0
-75 -100 0
-75 -101 0
-75 -102 0
-75 -103 0
-75 -104 0
-75 -105 0
-75 -106 0
-75 -107 0
-75 -108 0
-75 -114 0
-75 -115 0
-75 -116 0
-75 -117 0
-75 -118 0
-75 -119 0
-75 -120 0
-75 -121 0
-75 -122 0
-75 -131 0
-75 -132 0
-75 -133 0
-75 -134 0
-75 -145 0
-75 -148 0
-75 -149 0
-75 -150 0
-75 -151 0
-75 -159 0
-75 -162 0
-75 -163 0
-75 -164 0
-75 -165 0
-75 -173 0
-75 -187 0
-76 -77 0
-76 -78 0
-76 -79 0
-76 -80 0
-76 -81 0
-76 -82 0
-76 -83 0
-76 -84 0
-76 -89 0
-76 -90 0
-76 -91 0
-76 -92 0
-76 -104 0
-76 -118 0
-76 -132 0
-76 -146 0
-76 -160 0
-76 -174 0
-76 -188 0
-77 -78 0
-77 -79 0
-77 -80 0
-77 -81 0
-77 -82 0
-77 -83 0
-77 -84 0
-77 -90 0
-77 -91 0
-77 -92 0
-77 -105 0
-77 -119 0
-77 -133 0
-77 -147 0
-77 -161 0
-77 -175 0
-77 -189 0
-78 -79 0
-78 -80 0
-78 -81 0
-78 -82 0
-78 -83 0
-78 -84 0
-78 -91 0
-78 -92 0
-78 -93 0
-78 -106 0
-78 -120 0
-78 -134 0
-78 -148 0
-78 -162 0
-78 -176 0
-78 -190 0
-79 -80 0
-79 -81 0
-79 -82 0
-79 -83 0
-79 -84 0
-79 -92 0
-79 -93 0
-79 -94 0
-79 -107 0
-79 -121 0
-79 -135 0
-79 -149 0
-79 -163 0
-79 -177 0
-79 -191 0
-80 -81 0
-80 -82 0
-80 -83 0
-80 -84 0
-80 -92 0
-80 -93 0
-80 -94 0
-80 -95 0
-80 -108 0
-80 -122 0
-80 -136 0
-80 -150 0
-80 -164 0
-80 -178 0
-80 -192 0
-81 -82 0
-81 -83 0
-81 -84 0
-81 -94 0
-81 -95 0
-81 -96 0
-81 -97 0
-81 -98 0
-81 -109 0
-81 -110 0
-81 -123 0
-81 -137 0
-81 -151 0
-81 -165 0
-81 -179 0
-81 -193 0
-82 -83 0
-82 -84 0
-82 -95 0
-82 -96 0
-82 -97 0
-82 -98 0
-82 -109 0
-82 -110 0
-82 -124 0
-82 -138 0
-82 -152 0
-82 -166 0
-82 -180 0
-82 -194 0
-83 -84 0
-83 -95 0
-83 -96 0
-83 -97 0
-83 -98 0
-83 -109 0
-83 -110 0
-83 -111 0
-83 -125 0
-83 -139 0
-83 -153 0
-83 -167 0
-83 -181 0
-83 -195 0
-84 -95 0
-84 -96 0
-84 -97 0
-84 -98 0
-84 -109 0
-84 -110 0
-84 -112 0
-84 -126 0
-84 -140 0
-84 -154 0
-84 -168 0
-84 -182 0
-84 -196 0
-85 -86 0
-85 -87 0
-85 -88 0
-85 -89 0
-85 -90 0
-85 -91 0
-85 -92 0
-85 -93 0
-85 -94 0
-85 -95 0
-85 -96 0
-85 -97 0
-85 -98 0
-85 -99 0
-85 -100 0
-85 -101 0
-85 -102 0
-85 -103 0
-85 -104 0
-85 -105 0
-85 -106 0
-85 -107 0
-85 -108 0
-85 -113 0
-85 -114 0
-85 -115 0
-85 -116 0
-85 -117 0
-85 -118 0
-85 -119 0
-85 -120 0
-85 -121 0
-85 -122 0
-85 -127 0
-85 -131 0
-85 -132 0
-85 -133 0
-85 -134 0
-85 -141 0
-85 -148 0
-85 -149 0
-85 -150 0
-85 -151 0
-85 -155 0
-85 -162 0
-85 -163 0
-85 -164 0
-85 -165 0
-85 -169 0
-85 -183 0
-86 -87 0
-86 -88 0
-86 -89 0
-86 -90 0
-86 -91 0
-86 -92 0
-86 -93 0
-86 -94 0
-86 -95 0
-86 -96 0
-86 -97 0
-86 -98 0
-86 -99 0
-86 -100 0
-86 -101 0
-86 -102 0
-86 -103 0
-86 -104 0
-86 -105 0
-86 -106 0
-86 -107 0
-86 -108 0
-86 -114 0
-86 -115 0
-86 -116 0
-86 -117 0
-86 -118 0
-86 -119 0
-86 -120 0
-86 -121 0
-86 -122 0
-86 -128 0
-86 -131 0
-86 -132 0
-86 -133 0
-86 -134 0
-86 -142 0
-86 -148 0
-86 -149 0
-86 -150 0
-86 -151 0
-86 -156 0
-86 -162 0
-86 -163 0
-86 -164 0
-86 -165 0
-86 -170 0
-86 -184 0
-87 -88 0
-87 -89 0
-87 -90 0
-87 -91 0
-87 -92 0
-87 -93 0
-87 -94 0
-87 -95 0
-87 -96 0
-87 -97 0
-87 -98 0
-87 -99 0
-87 -100 0
-87 -101 0
-87 -102 0
-87 -103 0
-87 -104 0
-87 -105 0
-87 -106 0
-87 -107 0
-87 -108 0
-87 -114 0
-87 -115 0
-87 -116 0
-87 -117 0
-87 -118 0
-87 -119 0
-87 -120 0
-87 -121 0
-87 -122 0
-87 -129 0
-87 -131 0
-87 -132 0
-87 -133 0
-87 -134 0
-87 -143 0
-87 -148 0
-87 -149 0
-87 -150 0
-87 -151 0
-87 -157 0
-87 -162 0
-87 -163 0
-87 -164 0
-87 -165 0
-87 -171 0
-87 -185 0
-88 -89 0
-88 -90 0
-88 -91 0
-88 -92 0
-88 -93 0
-88 -94 0
-88 -95 0
-88 -96 0
-88 -97 0
-88 -98 0
-88 -99 0
-88 -100 0
-88 -101 0
-88 -102 0
-88 -103 0
-88 -104 0
-88 -105 0
-88 -106 0
-88 -107 0
-88 -108 0
-88 -114 0
-88 -115 0
-88 -116 0
-88 -117 0
-88 -118 0
-88 -119 0
-88 -120 0
-88 -121 0
-88 -122 0
-88 -130 0
-88 -131 0
-88 -132 0
-88 -133 0
-88 -134 0
-88 -144 0
-88 -148 0
-88 -149 0
-88 -150 0
-88 -151 0
-88 -158 0
-88 -162 0
-88 -163 0
-88 -164 0
-88 -165 0
-88 -172 0
-88 -186 0
-89 -90 0
-89 -91 0
-89 -92 0
-89 -93 0
-89 -94 0
-89 -95 0
-89 -96 0
-89 -97 0
-89 -98 0
-89 -99 0
-89 -100 0
-89 -101 0
-89 -102 0
-89 -103 0
-89 -104 0
-89 -105 0
-89 -106 0
-89 -107 0
-89 -108 0
-89 -114 0
-89 -115 0
-89 -116 0
-89 -117 0
-89 -118 0
-89 -119 0
-89 -120 0
-89 -121 0
-89 -122 0
-89 -131 0
-89 -132 0
-89 -133 0
-89 -134 0
-89 -145 0
-89 -148 0
-89 -149 0
-89 -150 0
-89 -151 0
-89 -159 0
-89 -162 0
-89 -163 0
-89 -164 0
-89 -165 0
-89 -173 0
-89 -187 0
-90 -91 0
-90 -92 0
-90 -93 0
-90 -94 0
-90 -95 0
-90 -96 0
-90 -97 0
-90 -98 0
-90 -99 0
-90 -100 0
-90 -101 0
-90 -102 0
-90 -103 0
-90 -104 0
-90 -105 0
-90 -106 0
-90 -107 0
-90 -108 0
-90 -114 0
-90 -115 0
-90 -116 0
-90 -117 0
-90 -118 0
-90 -119 0
-90 -120 0
-90 -121 0
-90 -122 0
-90 -131 0
-90 -132 0
-90 -133 0
-90 -134 0
-90 -146 0
-90 -148 0
-90 -149 0
-90 -150 0
-90 -151 0
-90 -160 0
-90 -162 0
-90 -163 0
-90 -164 0
-90 -165 0
-90 -174 0
-90 -188 0
-91 -92 0
-91 -93 0
-91 -94 0
-91 -95 0
-91 -96 0
-91 -97 0
-91 -98 0
-91 -99 0
-91 -100 0
-91 -101 0
-91 -102 0
-91 -103 0
-91 -104 0
-91 -105 0
-91 -106 0
-91 -107 0
-91 -108 0
-91 -114 0
-91 -115 0
-91 -116 0
-91 -117 0
-91 -118 0
-91 -119 0
-91 -120 0
-91 -121 0
-91 -122 0
-91 -131 0
-91 -132 0
-91 -133 0
-91 -134 0
-91 -147 0
-91 -148 0
-91 -149 0
-91 -150 0
-91 -151 0
-91 -161 0
-91 -162 0
-91 -163 0
-91 -164 0
-91 -165 0
-91 -175 0
-91 -189 0
-92 -93 0
-92 -94 0
-92 -95 0
-92 -96 0
-92 -97 0
-92 -98 0
-92 -105 0
-92 -106 0
-92 -107 0
-92 -120 0
-92 -134 0
-92 -148 0
-92 -162 0
-92 -176 0
-92 -190 0
-93 -94 0
-93 -95 0
-93 -96 0
-93 -97 0
-93 -98 0
-93 -99 0
-93 -100 0
-93 -101 0
-93 -102 0
-93 -103 0
-93 -104 0
-93 -105 0
-93 -106 0
-93 -107 0
-93 -108 0
-93 -114 0
-93 -115 0
-93 -116 0
-93 -117 0
-93 -118 0
-93 -119 0
-93 -120 0
-93 -121 0
-93 -122 0
-93 -131 0
-93 -132 0
-93 -133 0
-93 -134 0
-93 -135 0
-93 -148 0
-93 -149 0
-93 -150 0
-93 -151 0
-93 -162 0
-93 -163 0
-93 -164 0
-93 -165 0
-93 -177 0
-93 -191 0
-94 -95 0
-94 -96 0
-94 -97 0
-94 -98 0
-94 -99 0
-94 -100 0
-94 -101 0
-94 -102 0
-94 -103 0
-94 -104 0
-94 -105 0
-94 -106 0
-94 -107 0
-94 -108 0
-94 -109 0
-94 -114 0
-94 -115 0
-94 -116 0
-94 -117 0
-94 -118 0
-94 -119 0
-94 -120 0
-94 -121 0
-94 -122 0
-94 -131 0
-94 -132 0
-94 -133 0
-94 -134 0
-94 -136 0
-94 -148 0
-94 -149 0
-94 -150 0
-94 -151 0
-94 -162 0
-94 -163 0
-94 -164 0
-94 -165 0
-94 -178 0
-94 -192 0
-95 -96 0
-95 -97 0
-95 -98 0
-95 -108 0
-95 -109 0
-95 -110 0
-95 -123 0
-95 -137 0
-95 -151 0
-95 -165 0
-95 -179 0
-95 -193 0
-96 -97 0
-96 -98 0
-96 -109 0
-96 -110 0
-96 -111 0
-96 -124 0
-96 -138 0
-96 -152 0
-96 -166 0
-96 -180 0
-96 -194 0
-97 -98 0
-97 -109 0
-97 -110 0
-97 -111 0
-97 -112 0
-97 -125 0
-97 -139 0
-97 -153 0
-97 -167 0
-97 -181 0
-97 -195 0
-98 -109 0
-98 -110 0
-98 -111 0
-98 -112 0
-98 -126 0
-98 -140 0
-98 -154 0
-98 -168 0
-98 -182 0
-98 -196 0
-99 -100 0
-99 -101 0
-99 -102 0
-99 -103 0
-99 -104 0
-99 -105 0
-99 -106 0
-99 -107 0
-99 -108 0
-99 -109 0
-99 -110 0
-99 -111 0
-99 -112 0
-99 -113 0
-99 -114 0
-99 -115 0
-99 -116 0
-99 -117 0
-99 -118 0
-99 -119 0
-99 -120 0
-99 -121 0
-99 -122 0
-99 -127 0
-99 -131 0
-99 -132 0
-99 -133 0
-99 -134 0
-99 -141 0
-99 -148 0
-99 -149 0
-99 -150 0
-99 -151 0
-99 -155 0
-99 -162 0
-99 -163 0
-99 -164 0
-99 -165 0
-99 -169 0
-99 -183 0
-100 -101 0
-100 -102 0
-100 -103 0
-100 -104 0
-100 -105 0
-100 -106 0
-100 -107 0
-100 -108 0
-100 -109 0
-100 -110 0
-100 -111 0
-100 -112 0
-100 -113 0
-100 -114 0
-100 -115 0
-100 -116 0
-100 -117 0
-100 -118 0
-100 -119 0
-100 -120 0
-100 -121 0
-100 -122 0
-100 -128 0
-100 -131 0
-100 -132 0
-100 -133 0
-100 -134 0
-100 -142 0
-100 -148 0
-100 -149 0
-100 -150 0
-100 -151 0
-100 -156 0
-100 -162 0
-100 -163 0
-100 -164 0
-100 -165 0
-100 -170 0
-100 -184 0
-101 -102 0
-101 -103 0
-101 -104 0
-101 -105 0
-101 -106 0
-101 -107 0
-101 -108 0
-101 -109 0
-101 -110 0
-101 -111 0
-101 -112 0
-101 -114 0
-101 -115 0
-101 -116 0
-101 -117 0
-101 -118 0
-101 -119 0
-101 -120 0
-101 -121 0
-101 -122 0
-101 -129 0
-101 -131 0
-101 -132 0
-101 -133 0
-101 -134 0
-101 -143 0
-101 -148 0
-101 -149 0
-101 -150 0
-101 -151 0
-101 -157 0
-101 -162 0
-101 -163 0
-101 -164 0
-101 -165 0
-101 -171 0
-101 -185 0
-102 -103 0
-102 -104 0
-102 -105 0
-102 -106 0
-102 -107 0
-102 -108 0
-102 -109 0
-102 -110 0
-102 -111 0
-102 -112 0
-102 -114 0
-102 -115 0
-102 -116 0
-102 -117 0
-102 -118 0
-102 -119 0
-102 -120 0
-102 -121 0
-102 -122 0
-102 -130 0
-102 -131 0
-102 -132 0
-102 -133 0
-102 -134 0
-102 -144 0
-102 -148 0
-102 -149 0
-102 -150 0
-102 -151 0
-102 -158 0
-102 -162 0
-102 -163 0
-102 -164 0
-102 -165 0
-102 -172 0
-102 -186 0
-103 -104 0
-103 -105 0
-103 -106 0
-103 -107 0
-103 -108 0
-103 -109 0
-103 -110 0
-103 -111 0
-103 -112 0
-103 -114 0
-103 -115 0
-103 -116 0
-103 -117 0
-103 -118 0
-103 -119 0
-103 -120 0
-103 -121 0
-103 -122 0
-103 -131 0
-103 -132 0
-103 -133 0
-103 -134 0
-103 -145 0
-103 -148 0
-103 -149 0
-103 -150 0
-103 -151 0
-103 -159 0
-103 -162 0
-103 -163 0
-103 -164 0
-103 -165 0
-103 -173 0
-103 -187 0
-104 -105 0
-104 -106 0
-104 -107 0
-104 -108 0
-104 -109 0
-104 -110 0
-104 -111 0
-104 -112 0
-104 -114 0
-104 -115 0
-104 -116 0
-104 -117 0
-104 -118 0
-104 -119 0
-104 -120 0
-104 -121 0
-104 -122 0
-104 -131 0
-104 -132 0
-104 -133 0
-104 -134 0
-104 -146 0
-104 -148 0
-104 -149 0
-104 -150 0
-104 -151 0
-104 -160 0
-104 -162 0
-104 -163 0
-104 -164 0
-104 -165 0
-104 -174 0
-104 -188 0
-105 -106 0
-105 -107 0
-105 -108 0
-105 -109 0
-105 -110 0
-105 -111 0
-105 -112 0
-105 -114 0
-105 -115 0
-105 -116 0
-105 -117 0
-105 -118 0
-105 -119 0
-105 -120 0
-105 -121 0
-105 -122 0
-105 -131 0
-105 -132 0
-105 -133 0
-105 -134 0
-105 -147 0
-105 -148 0
-105 -149 0
-105 -150 0
-105 -151 0
-105 -161 0
-105 -162 0
-105 -163 0
-105 -164 0
-105 -165 0
-105 -175 0
-105 -189 0
-106 -107 0
-106 -108 0
-106 -109 0
-106 -110 0
-106 -111 0
-106 -112 0
-106 -114 0
-106 -115 0
-106 -116 0
-106 -117 0
-106 -118 0
-106 -119 0
-106 -120 0
-106 -121 0
-106 -122 0
-106 -131 0
-106 -132 0
-106 -133 0
-106 -134 0
-106 -148 0
-106 -149 0
-106 -150 0
-106 -151 0
-106 -162 0
-106 -163 0
-106 -164 0
-106 -165 0
-106 -176 0
-106 -190 0
-107 -108 0
-107 -109 0
-107 -110 0
-107 -111 0
-107 -112 0
-107 -114 0
-107 -115 0
-107 -116 0
-107 -117 0
-107 -118 0
-107 -119 0
-107 -120 0
-107 -121 0
-107 -122 0
-107 -131 0
-107 -132 0
-107 -133 0
-107 -134 0
-107 -135 0
-107 -148 0
-107 -149 0
-107 -150 0
-107 -151 0
-107 -162 0
-107 -163 0
-107 -164 0
-107 -165 0
-107 -177 0
-107 -191 0
-108 -109 0
-108 -110 0
-108 -111 0
-108 -112 0
-108 -114 0
-108 -115 0
-108 -116 0
-108 -117 0
-108 -118 0
-108 -119 0
-108 -120 0
-108 -121 0
-108 -122 0
-108 -123 0
-108 -131 0
-108 -132 0
-108 -133 0
-108 -134 0
-108 -136 0
-108 -148 0
-108 -149 0
-108 -150 0
-108 -151 0
-108 -162 0
-108 -163 0
-108 -164 0
-108 -165 0
-108 -178 0
-108 -192 0
-109 -110 0
-109 -111 0
-109 -112 0
-109 -122 0
-109 -123 0
-109 -124 0
-109 -137 0
-109 -151 0
-109 -165 0
-109 -179 0
-109 -193 0
-110 -111 0
-110 -112 0
-110 -123 0
-110 -124 0
-110 -125 0
-110 -138 0
-110 -152 0
-110 -166 0
-110 -180 0
-110 -194 0
-111 -112 0
-111 -123 0
-111 -124 0
-111 -125 0
-111 -126 0
-111 -135 0
-111 -136 0
-111 -137 0
-111 -138 0
-111 -139 0
-111 -140 0
-111 -152 0
-111 -153 0
-111 -154 0
-111 -166 0
-111 -167 0
-111 -168 0
-111 -175 0
-111 -176 0
-111 -177 0
-111 -178 0
-111 -179 0
-111 -180 0
-111 -181 0
-111 -182 0
-111 -189 0
-111 -190 0
-111 -191 0
-111 -192 0
-111 -193 0
-111 -194 0
-111 -195 0
-111 -196 0
-112 -123 0
-112 -124 0
-112 -125 0
-112 -126 0
-112 -135 0
-112 -136 0
-112 -137 0
-112 -138 0
-112 -139 0
-112 -140 0
-112 -152 0
-112 -153 0
-112 -154 0
-112 -166 0
-112 -167 0
-112 -168 0
-112 -175 0
-112 -176 0
-112 -177 0
-112 -178 0
-112 -179 0
-112 -180 0
-112 -181 0
-112 -182 0
-112 -189 0
-112 -190 0
-112 -191 0
-112 -192 0
-112 -193 0
-112 -194 0
-112 -195 0
-112 -196 0
-113 -114 0
-113 -115 0
-113 -116 0
-113 -117 0
-113 -118 0
-113 -119 0
-113 -120 0
-113 -121 0
-113 -122 0
-113 -123 0
-113 -124 0
-113 -125 0
-113 -126 0
-113 -127 0
-113 -128 0
-113 -141 0
-113 -142 0
-113 -155 0
-113 -156 0
-113 -157 0
-113 -169 0
-113 -170 0
-113 -171 0
-113 -183 0
-113 -184 0
-113 -185 0
-114 -115 0
-114 -116 0
-114 -117 0
-114 -118 0
-114 -119 0
-114 -120 0
-114 -121 0
-114 -122 0
-114 -123 0
-114 -124 0
-114 -125 0
-114 -126 0
-114 -127 0
-114 -128 0
-114 -129 0
-114 -131 0
-114 -132 0
-114 -133 0
-114 -134 0
-114 -142 0
-114 -148 0
-114 -149 0
-114 -150 0
-114 -151 0
-114 -156 0
-114 -162 0
-114 -163 0
-114 -164 0
-114 -165 0
-114 -170 0
-114 -184 0
-115 -116 0
-115 -117 0
-115 -118 0
-115 -119 0
-115 -120 0
-115 -121 0
-115 -122 0
-115 -123 0
-115 -124 0
-115 -125 0
-115 -126 0
-115 -128 0
-115 -129 0
-115 -130 0
-115 -131 0
-115 -132 0
-115 -133 0
-115 -134 0
-115 -143 0
-115 -148 0
-115 -149 0
-115 -150 0
-115 -151 0
-115 -157 0
-115 -162 0
-115 -163 0
-115 -164 0
-115 -165 0
-115 -171 0
-115 -185 0
-116 -117 0
-116 -118 0
-116 -119 0
-116 -120 0
-116 -121 0
-116 -122 0
-116 -123 0
-116 -124 0
-116 -125 0
-116 -126 0
-116 -129 0
-116 -130 0
-116 -131 0
-116 -132 0
-116 -133 0
-116 -134 0
-116 -144 0
-116 -148 0
-116 -149 0
-116 -150 0
-116 -151 0
-116 -158 0
-116 -162 0
-116 -163 0
-116 -164 0
-116 -165 0
-116 -172 0
-116 -186 0
-117 -118 0
-117 -119 0
-117 -120 0
-117 -121 0
-117 -122 0
-117 -123 0
-117 -124 0
-117 -125 0
-117 -126 0
-117 -130 0
-117 -131 0
-117 -132 0
-117 -133 0
-117 -134 0
-117 -145 0
-117 -148 0
-117 -149 0
-117 -150 0
-117 -151 0
-117 -159 0
-117 -162 0
-117 -163 0
-117 -164 0
-117 -165 0
-117 -173 0
-117 -187 0
-118 -119 0
-118 -120 0
-118 -121 0
-118 -122 0
-118 -123 0
-118 -124 0
-118 -125 0
-118 -126 0
-118 -131 0
-118 -132 0
-118 -133 0
-118 -134 0
-118 -146 0
-118 -148 0
-118 -149 0
-118 -150 0
-118 -151 0
-118 -160 0
-118 -162 0
-118 -163 0
-118 -164 0
-118 -165 0
-118 -174 0
-118 -188 0
-119 -120 0
-119 -121 0
-119 -122 0
-119 -123 0
-119 -124 0
-119 -125 0
-119 -126 0
-119 -131 0
-119 -132 0
-119 -133 0
-119 -134 0
-119 -147 0
-119 -148 0
-119 -149 0
-119 -150 0
-119 -151 0
-119 -161 0
-119 -162 0
-119 -163 0
-119 -164 0
-119 -165 0
-119 -175 0
-119 -189 0
-120 -121 0
-120 -122 0
-120 -123 0
-120 -124 0
-120 -125 0
-120 -126 0
-120 -131 0
-120 -132 0
-120 -133 0
-120 -134 0
-120 -135 0
-120 -148 0
-120 -149 0
-120 -150 0
-120 -151 0
-120 -162 0
-120 -163 0
-120 -164 0
-120 -165 0
-120 -176 0
-120 -190 0
-121 -122 0
-121 -123 0
-121 -124 0
-121 -125 0
-121 -126 0
-121 -131 0
-121 -132 0
-121 -133 0
-121 -134 0
-121 -135 0
-121 -136 0
-121 -148 0
-121 -149 0
-121 -150 0
-121 -151 0
-121 -162 0
-121 -163 0
-121 -164 0
-121 -165 0
-121 -177 0
-121 -191 0
-122 -123 0
-122 -124 0
-122 -125 0
-122 -126 0
-122 -131 0
-122 -132 0
-122 -133 0
-122 -134 0
-122 -135 0
-122 -136 0
-122 -137 0
-122 -148 0
-122 -149 0
-122 -150 0
-122 -151 0
-122 -162 0
-122 -163 0
-122 -164 0
-122 -165 0
-122 -178 0
-122 -192 0
-123 -124 0
-123 -125 0
-123 -126 0
-123 -135 0
-123 -136 0
-123 -137 0
-123 -138 0
-123 -139 0
-123 -140 0
-123 -151 0
-123 -152 0
-123 -153 0
-123 -154 0
-123 -165 0
-123 -166 0
-123 -167 0
-123 -168 0
-123 -175 0
-123 -176 0
-123 -177 0
-123 -178 0
-123 -179 0
-123 -180 0
-123 -181 0
-123 -182 0
-123 -189 0
-123 -190 0
-123 -191 0
-123 -192 0
-123 -193 0
-123 -194 0
-123 -195 0
-123 -196 0
-124 -125 0
-124 -126 0
-124 -135 0
-124 -136 0
-124 -137 0
-124 -138 0
-124 -139 0
-124 -140 0
-124 -152 0
-124 -153 0
-124 -154 0
-124 -166 0
-124 -167 0
-124 -168 0
-124 -175 0
-124 -176 0
-124 -177 0
-124 -178 0
-124 -179 0
-124 -180 0
-124 -181 0
-124 -182 0
-124 -189 0
-124 -190 0
-124 -191 0
-124 -192 0
-124 -193 0
-124 -194 0
-124 -195 0
-124 -196 0
-125 -126 0
-125 -135 0
-125 -136 0
-125 -137 0
-125 -138 0
-125 -139 0
-125 -140 0
-125 -152 0
-125 -153 0
-125 -154 0
-125 -166 0
-125 -167 0
-125 -168 0
-125 -175 0
-125 -176 0
-125 -177 0
-125 -178 0
-125 -179 0
-125 -180 0
-125 -181 0
-125 -182 0
-125 -189 0
-125 -190 0
-125 -191 0
-125 -192 0
-125 -193 0
-125 -194 0
-125 -195 0
-125 -196 0
-126 -135 0
-126 -136 0
-126 -137 0
-126 -138 0
-126 -139 0
-126 -140 0
-126 -152 0
-126 -153 0
-126 -154 0
-126 -166 0
-126 -167 0
-126 -168 0
-126 -175 0
-126 -176 0
-126 -177 0
-126 -178 0
-126 -179 0
-126 -180 0
-126 -181 0
-126 -182 0
-126 -189 0
-126 -190 0
-126 -191 0
-126 -192 0
-126 -193 0
-126 -194 0
-126 -195 0
-126 -196 0
-127 -128 0
-127 -129 0
-127 -130 0
-127 -131 0
-127 -132 0
-127 -133 0
-127 -134 0
-127 -135 0
-127 -136 0
-127 -137 0
-127 -138 0
-127 -139 0
-127 -140 0
-127 -141 0
-127 -142 0
-127 -155 0
-127 -156 0
-127 -157 0
-127 -169 0
-127 -170 0
-127 -171 0
-127 -183 0
-127 -184 0
-127 -185 0
-128 -129 0
-128 -130 0
-128 -131 0
-128 -132 0
-128 -133 0
-128 -134 0
-128 -135 0
-128 -136 0
-128 -137 0
-128 -138 0
-128 -139 0
-128 -140 0
-128 -141 0
-128 -142 0
-128 -143 0
-128 -155 0
-128 -156 0
-128 -157 0
-128 -169 0
-128 -170 0
-128 -171 0
-128 -183 0
-128 -184 0
-128 -185 0
-129 -130 0
-129 -131 0
-129 -132 0
-129 -133 0
-129 -134 0
-129 -135 0
-129 -136 0
-129 -137 0
-129 -138 0
-129 -139 0
-129 -140 0
-129 -142 0
-129 -143 0
-129 -144 0
-129 -157 0
-129 -171 0
-129 -185 0
-130 -131 0
-130 -132 0
-130 -133 0
-130 -134 0
-130 -135 0
-130 -136 0
-130 -137 0
-130 -138 0
-130 -139 0
-130 -140 0
-130 -143 0
-130 -144 0
-130 -145 0
-130 -158 0
-130 -172 0
-130 -186 0
-131 -132 0
-131 -133 0
-131 -134 0
-131 -135 0
-131 -136 0
-131 -137 0
-131 -138 0
-131 -139 0
-131 -140 0
-131 -144 0
-131 -145 0
-131 -146 0
-131 -148 0
-131 -149 0
-131 -150 0
-131 -151 0
-131 -159 0
-131 -162 0
-131 -163 0
-131 -164 0
-131 -165 0
-131 -173 0
-131 -187 0
-132 -133 0
-132 -134 0
-132 -135 0
-132 -136 0
-132 -137 0
-132 -138 0
-132 -139 0
-132 -140 0
-132 -145 0
-132 -146 0
-132 -147 0
-132 -148 0
-132 -149 0
-132 -150 0
-132 -151 0
-132 -160 0
-132 -162 0
-132 -163 0
-132 -164 0
-132 -165 0
-132 -174 0
-132 -188 0
-133 -134 0
-133 -135 0
-133 -136 0
-133 -137 0
-133 -138 0
-133 -139 0
-133 -140 0
-133 -146 0
-133 -147 0
-133 -148 0
-133 -149 0
-133 -150 0
-133 -151 0
-133 -161 0
-133 -162 0
-133 -163 0
-133 -164 0
-133 -165 0
-133 -175 0
-133 -189 0
-134 -135 0
-134 -136 0
-134 -137 0
-134 -138 0
-134 -139 0
-134 -140 0
-134 -147 0
-134 -148 0
-134 -149 0
-134 -150 0
-134 -151 0
-134 -162 0
-134 -163 0
-134 -164 0
-134 -165 0
-134 -176 0
-134 -190 0
-135 -136 0
-135 -137 0
-135 -138 0
-135 -139 0
-135 -140 0
-135 -148 0
-135 -149 0
-135 -150 0
-135 -152 0
-135 -153 0
-135 -154 0
-135 -163 0
-135 -166 0
-135 -167 0
-135 -168 0
-135 -175 0
-135 -176 0
-135 -177 0
-135 -178 0
-135 -179 0
-135 -180 0
-135 -181 0
-135 -182 0
-135 -189 0
-135 -190 0
-135 -191 0
-135 -192 0
-135 -193 0
-135 -194 0
-135 -195 0
-135 -196 0
-136 -137 0
-136 -138 0
-136 -139 0
-136 -140 0
-136 -149 0
-136 -150 0
-136 -151 0
-136 -152 0
-136 -153 0
-136 -154 0
-136 -164 0
-136 -166 0
-136 -167 0
-136 -168 0
-136 -175 0
-136 -176 0
-136 -177 0
-136 -178 0
-136 -179 0
-136 -180 0
-136 -181 0
-136 -182 0
-136 -189 0
-136 -190 0
-136 -191 0
-136 -192 0
-136 -193 0
-136 -194 0
-136 -195 0
-136 -196 0
-137 -138 0
-137 -139 0
-137 -140 0
-137 -150 0
-137 -151 0
-137 -152 0
-137 -153 0
-137 -154 0
-137 -165 0
-137 -166 0
-137 -167 0
-137 -168 0
-137 -175 0
-137 -176 0
-137 -177 0
-137 -178 0
-137 -179 0
-137 -180 0
-137 -181 0
-137 -182 0
-137 -189 0
-137 -190 0
-137 -191 0
-137 -192 0
-137 -193 0
-137 -194 0
-137 -195 0
-137 -196 0
-138 -139 0
-138 -140 0
-138 -151 0
-138 -152 0
-138 -153 0
-138 -154 0
-138 -166 0
-138 -167 0
-138 -168 0
-138 -175 0
-138 -176 0
-138 -177 0
-138 -178 0
-138 -179 0
-138 -180 0
-138 -181 0
-138 -182 0
-138 -189 0
-138 -190 0
-138 -191 0
-138 -192 0
-138 -193 0
-138 -194 0
-138 -195 0
-138 -196 0
-139 -140 0
-139 -152 0
-139 -153 0
-139 -154 0
-139 -166 0
-139 -167 0
-139 -168 0
-139 -175 0
-139 -176 0
-139 -177 0
-139 -178 0
-139 -179 0
-139 -180 0
-139 -181 0
-139 -182 0
-139 -189 0
-139 -190 0
-139 -191 0
-139 -192 0
-139 -193 0
-139 -194 0
-139 -195 0
-139 -196 0
-140 -152 0
-140 -153 0
-140 -154 0
-140 -166 0
-140 -167 0
-140 -168 0
-140 -175 0
-140 -176 0
-140 -177 0
-140 -178 0
-140 -179 0
-140 -180 0
-140 -181 0
-140 -182 0
-140 -189 0
-140 -190 0
-140 -191 0
-140 -192 0
-140 -193 0
-140 -194 0
-140 -195 0
-140 -196 0
-141 -142 0
-141 -143 0
-141 -144 0
-141 -145 0
-141 -146 0
-141 -147 0
-141 -148 0
-141 -149 0
-141 -150 0
-141 -151 0
-141 -152 0
-141 -153 0
-141 -154 0
-141 -155 0
-141 -156 0
-141 -157 0
-141 -169 0
-141 -170 0
-141 -171 0
-141 -183 0
-141 -184 0
-141 -185 0
-142 -143 0
-142 -144 0
-142 -145 0
-142 -146 0
-142 -147 0
-142 -148 0
-142 -149 0
-142 -150 0
-142 -151 0
-142 -152 0
-142 -153 0
-142 -154 0
-142 -155 0
-142 -156 0
-142 -157 0
-142 -169 0
-142 -170 0
-142 -171 0
-142 -183 0
-142 -184 0
-142 -185 0
-143 -144 0
-143 -145 0
-143 -146 0
-143 -147 0
-143 -148 0
-143 -149 0
-143 -150 0
-143 -151 0
-143 -152 0
-143 -153 0
-143 -154 0
-143 -156 0
-143 -157 0
-143 -158 0
-143 -171 0
-143 -172 0
-143 -173 0
-143 -185 0
-143 -186 0
-143 -187 0
-144 -145 0
-144 -146 0
-144 -147 0
-144 -148 0
-144 -149 0
-144 -150 0
-144 -151 0
-144 -152 0
-144 -153 0
-144 -154 0
-144 -157 0
-144 -158 0
-144 -159 0
-144 -172 0
-144 -173 0
-144 -186 0
-144 -187 0
-145 -146 0
-145 -147 0
-145 -148 0
-145 -149 0
-145 -150 0
-145 -151 0
-145 -152 0
-145 -153 0
-145 -154 0
-145 -158 0
-145 -159 0
-145 -160 0
-145 -161 0
-145 -173 0
-145 -174 0
-145 -187 0
-145 -188 0
-146 -147 0
-146 -148 0
-146 -149 0
-146 -150 0
-146 -151 0
-146 -152 0
-146 -153 0
-146 -154 0
-146 -159 0
-146 -160 0
-146 -161 0
-146 -174 0
-146 -188 0
-147 -148 0
-147 -149 0
-147 -150 0
-147 -151 0
-147 -152 0
-147 -153 0
-147 -154 0
-147 -159 0
-147 -160 0
-147 -161 0
-147 -162 0
-147 -174 0
-147 -175 0
-147 -188 0
-147 -189 0
-148 -149 0
-148 -150 0
-148 -151 0
-148 -152 0
-148 -153 0
-148 -154 0
-148 -161 0
-148 -162 0
-148 -163 0
-148 -164 0
-148 -165 0
-148 -176 0
-148 -190 0
-149 -150 0
-149 -151 0
-149 -152 0
-149 -153 0
-149 -154 0
-149 -162 0
-149 -163 0
-149 -164 0
-149 -165 0
-149 -177 0
-149 -191 0
-150 -151 0
-150 -152 0
-150 -153 0
-150 -154 0
-150 -162 0
-150 -163 0
-150 -164 0
-150 -165 0
-150 -178 0
-150 -192 0
-151 -152 0
-151 -153 0
-151 -154 0
-151 -162 0
-151 -163 0
-151 -164 0
-151 -165 0
-151 -166 0
-151 -179 0
-151 -193 0
-152 -153 0
-152 -154 0
-152 -165 0
-152 -166 0
-152 -167 0
-152 -168 0
-152 -175 0
-152 -176 0
-152 -177 0
-152 -178 0
-152 -179 0
-152 -180 0
-152 -181 0
-152 -182 0
-152 -189 0
-152 -190 0
-152 -191 0
-152 -192 0
-152 -193 0
-152 -194 0
-152 -195 0
-152 -196 0
-153 -154 0
-153 -166 0
-153 -167 0
-153 -168 0
-153 -175 0
-153 -176 0
-153 -177 0
-153 -178 0
-153 -179 0
-153 -180 0
-153 -181 0
-153 -182 0
-153 -189 0
-153 -190 0
-153 -191 0
-153 -192 0
-153 -193 0
-153 -194 0
-153 -195 0
-153 -196 0
-154 -166 0
-154 -167 0
-154 -168 0
-154 -175 0
-154 -176 0
-154 -177 0
-154 -178 0
-154 -179 0
-154 -180 0
-154 -181 0
-154 -182 0
-154 -189 0
-154 -190 0
-154 -191 0
-154 -192 0
-154 -193 0
-154 -194 0
-154 -195 0
-154 -196 0
-155 -156 0
-155 -157 0
-155 -158 0
-155 -159 0
-155 -160 0
-155 -161 0
-155 -162 0
-155 -163 0
-155 -164 0
-155 -165 0
-155 -166 0
-155 -167 0
-155 -168 0
-155 -169 0
-155 -170 0
-155 -171 0
-155 -183 0
-155 -184 0
-155 -185 0
-156 -157 0
-156 -158 0
-156 -159 0
-156 -160 0
-156 -161 0
-156 -162 0
-156 -163 0
-156 -164 0
-156 -165 0
-156 -166 0
-156 -167 0
-156 -168 0
-156 -169 0
-156 -170 0
-156 -171 0
-156 -183 0
-156 -184 0
-156 -185 0
-157 -158 0
-157 -159 0
-157 -160 0
-157 -161 0
-157 -162 0
-157 -163 0
-157 -164 0
-157 -165 0
-157 -166 0
-157 -167 0
-157 -168 0
-157 -169 0
-157 -170 0
-157 -171 0
-157 -172 0
-157 -183 0
-157 -184 0
-157 -185 0
-158 -159 0
-158 -160 0
-158 -161 0
-158 -162 0
-158 -163 0
-158 -164 0
-158 -165 0
-158 -166 0
-158 -167 0
-158 -168 0
-158 -171 0
-158 -172 0
-158 -173 0
-158 -186 0
-158 -187 0
-159 -160 0
-159 -161 0
-159 -162 0
-159 -163 0
-159 -164 0
-159 -165 0
-159 -166 0
-159 -167 0
-159 -168 0
-159 -172 0
-159 -173 0
-159 -174 0
-159 -187 0
-159 -188 0
-160 -161 0
-160 -162 0
-160 -163 0
-160 -164 0
-160 -165 0
-160 -166 0
-160 -167 0
-160 -168 0
-160 -173 0
-160 -174 0
-160 -175 0
-160 -188 0
-161 -162 0
-161 -163 0
-161 -164 0
-161 -165 0
-161 -166 0
-161 -167 0
-161 -168 0
-161 -174 0
-161 -175 0
-161 -176 0
-161 -188 0
-161 -189 0
-162 -163 0
-162 -164 0
-162 -165 0
-162 -166 0
-162 -167 0
-162 -168 0
-162 -175 0
-162 -176 0
-162 -177 0
-162 -190 0
-163 -164 0
-163 -165 0
-163 -166 0
-163 -167 0
-163 -168 0
-163 -176 0
-163 -177 0
-163 -178 0
-163 -191 0
-164 -165 0
-164 -166 0
-164 -167 0
-164 -168 0
-164 -177 0
-164 -178 0
-164 -179 0
-164 -192 0
-165 -166 0
-165 -167 0
-165 -168 0
-165 -178 0
-165 -179 0
-165 -180 0
-165 -193 0
-166 -167 0
-166 -168 0
-166 -175 0
-166 -176 0
-166 -177 0
-166 -178 0
-166 -179 0
-166 -180 0
-166 -181 0
-166 -182 0
-166 -189 0
-166 -190 0
-166 -191 0
-166 -192 0
-166 -193 0
-166 -194 0
-166 -195 0
-166 -196 0
-167 -168 0
-167 -175 0
-167 -176 0
-167 -177 0
-167 -178 0
-167 -179 0
-167 -180 0
-167 -181 0
-167 -182 0
-167 -189 0
-167 -190 0
-167 -191 0
-167 -192 0
-167 -193 0
-167 -194 0
-167 -195 0
-167 -196 0
-168 -175 0
-168 -176 0
-168 -177 0
-168 -178 0
-168 -179 0
-168 -180 0
-168 -181 0
-168 -182 0
-168 -189 0
-168 -190 0
-168 -191 0
-168 -192 0
-168 -193 0
-168 -194 0
-168 -195 0
-168 -196 0
-169 -170 0
-169 -171 0
-169 -172 0
-169 -173 0
-169 -174 0
-169 -175 0
-169 -176 0
-169 -177 0
-169 -178 0
-169 -179 0
-169 -180 0
-169 -181 0
-169 -182 0
-169 -183 0
-169 -184 0
-169 -185 0
-170 -171 0
-170 -172 0
-170 -173 0
-170 -174 0
-170 -175 0
-170 -176 0
-170 -177 0
-170 -178 0
-170 -179 0
-170 -180 0
-170 -181 0
-170 -182 0
-170 -183 0
-170 -184 0
-170 -185 0
-171 -172 0
-171 -173 0
-171 -174 0
-171 -175 0
-171 -176 0
-171 -177 0
-171 -178 0
-171 -179 0
-171 -180 0
-171 -181 0
-171 -182 0
-171 -183 0
-171 -184 0
-171 -185 0
-171 -186 0
-172 -173 0
-172 -174 0
-172 -175 0
-172 -176 0
-172 -177 0
-172 -178 0
-172 -179 0
-172 -180 0
-172 -181 0
-172 -182 0
-172 -185 0
-172 -186 0
-172 -187 0
-173 -174 0
-173 -175 0
-173 -176 0
-173 -177 0
-173 -178 0
-173 -179 0
-173 -180 0
-173 -181 0
-173 -182 0
-173 -186 0
-173 -187 0
-173 -188 0
-174 -175 0
-174 -176 0
-174 -177 0
-174 -178 0
-174 -179 0
-174 -180 0
-174 -181 0
-174 -182 0
-174 -187 0
-174 -188 0
-174 -189 0
-175 -176 0
-175 -177 0
-175 -178 0
-175 -179 0
-175 -180 0
-175 -181 0
-175 -182 0
-175 -188 0
-175 -189 0
-175 -190 0
-175 -191 0
-175 -192 0
-175 -193 0
-175 -194 0
-175 -195 0
-175 -196 0
-176 -177 0
-176 -178 0
-176 -179 0
-176 -180 0
-176 -181 0
-176 -182 0
-176 -189 0
-176 -190 0
-176 -191 0
-176 -192 0
-176 -193 0
-176 -194 0
-176 -195 0
-176 -196 0
-177 -178 0
-177 -179 0
-177 -180 0
-177 -181 0
-177 -182 0
-177 -189 0
-177 -190 0
-177 -191 0
-177 -192 0
-177 -193 0
-177 -194 0
-177 -195 0
-177 -196 0
-178 -179 0
-178 -180 0
-178 -181 0
-178 -182 0
-178 -189 0
-178 -190 0
-178 -191 0
-178 -192 0
-178 -193 0
-178 -194 0
-178 -195 0
-178 -196 0
-179 -180 0
-179 -181 0
-179 -182 0
-179 -189 0
-179 -190 0
-179 -191 0
-179 -192 0
-179 -193 0
-179 -194 0
-179 -195 0
-179 -196 0
-180 -181 0
-180 -182 0
-180 -189 0
-180 -190 0
-180 -191 0
-180 -192 0
-180 -193 0
-180 -194 0
-180 -195 0
-180 -196 0
-181 -182 0
-181 -189 0
-181 -190 0
-181 -191 0
-181 -192 0
-181 -193 0
-181 -194 0
-181 -195 0
-181 -196 0
-182 -189 0
-182 -190 0
-182 -191 0
-182 -192 0
-182 -193 0
-182 -194 0
-182 -195 0
-182 -196 0
-183 -184 0
-183 -185 0
-183 -186 0
-183 -187 0
-183 -188 0
-183 -189 0
-183 -190 0
-183 -191 0
-183 -192 0
-183 -193 0
-183 -194 0
-183 -195 0
-183 -196 0
-184 -185 0
-184 -186 0
-184 -187 0
-184 -188 0
-184 -189 0
-184 -190 0
-184 -191 0
-184 -192 0
-184 -193 0
-184 -194 0
-184 -195 0
-184 -196 0
-185 -186 0
-185 -187 0
-185 -188 0
-185 -189 0
-185 -190 0
-185 -191 0
-185 -192 0
-185 -193 0
-185 -194 0
-185 -195 0
-185 -196 0
-186 -187 0
-186 -188 0
-186 -189 0
-186 -190 0
-186 -191 0
-186 -192 0
-186 -193 0
-186 -194 0
-186 -195 0
-186 -196 0
-187 -188 0
-187 -189 0
-187 -190 0
-187 -191 0
-187 -192 0
-187 -193 0
-187 -194 0
-187 -195 0
-187 -196 0
-188 -189 0
-188 -190 0
-188 -191 0
-188 -192 0
-188 -193 0
-188 -194 0
-188 -195 0
-188 -196 0
-189 -190 0
-189 -191 0
-189 -192 0
-189 -193 0
-189 -194 0
-189 -195 0
-189 -196 0
-190 -191 0
-190 -192 0
-190 -193 0
-190 -194 0
-190 -195 0
-190 -196 0
-191 -192 0
-191 -193 0
-191 -194 0
-191 -195 0
-191 -196 0
-192 -193 0
-192 -194 0
-192 -195 0
-192 -196 0
-193 -194 0
-193 -195 0
-193 -196 0
-194 -195 0
-194 -196 0
-195 -196 0
1 2 3 15 16 0
4 5 17 18 19 20 31 32 33 0
6 7 21 0
8 22 23 36 0
9 10 0
11 12 13 14 24 25 26 27 28 39 40 41 42 53 54 55 56 67 68 69 70 81 82 83 84 95 96 97 98 109 110 0
29 30 43 44 45 46 47 57 58 59 60 61 71 72 73 74 75 85 86 87 88 89 90 91 93 94 99 100 101 102 103 104 105 106 107 108 114 115 116 117 118 119 120 121 122 131 132 133 134 148 149 150 151 162 163 164 165 0
34 35 0
37 38 48 49 50 51 52 62 63 64 65 66 76 77 78 79 80 92 0
111 112 123 124 125 126 135 136 137 138 139 140 152 153 154 166 167 168 175 176 177 178 179 180 181 182 189 190 191 192 193 194 195 196 0
113 127 128 141 142 155 156 157 169 170 171 183 184 185 0
129 130 0
143 144 158 172 173 186 187 0
145 146 147 159 160 161 174 188 0
