p cnf 144 2262
-1 -2 0
-1 -3 0
-1 -4 0
-1 -5 0
-1 -6 0
-1 -7 0
-1 -8 0
-1 -9 0
-1 -10 0
-1 -11 0
-1 -12 0
-1 -13 0
-1 -14 0
-1 -15 0
-1 -16 0
-1 -17 0
-1 -18 0
-1 -25 0
-1 -26 0
-1 -27 0
-1 -28 0
-1 -37 0
-1 -49 0
-1 -61 0
-1 -73 0
-1 -85 0
-1 -97 0
-1 -109 0
-1 -121 0
-1 -133 0
-2 -3 0
-2 -4 0
-2 -5 0
-2 -6 0
-2 -7 0
-2 -8 0
-2 -9 0
-2 -10 0
-2 -11 0
-2 -12 0
-2 -13 0
-2 -14 0
-2 -15 0
-2 -16 0
-2 -17 0
-2 -18 0
-2 -25 0
-2 -26 0
-2 -27 0
-2 -28 0
-2 -38 0
-2 -50 0
-2 -62 0
-2 -74 0
-2 -86 0
-2 -98 0
-2 -110 0
-2 -122 0
-2 -134 0
-3 -4 0
-3 -5 0
-3 -6 0
-3 -7 0
-3 -8 0
-3 -9 0
-3 -10 0
-3 -11 0
-3 -12 0
-3 -13 0
-3 -14 0
-3 -15 0
-3 -16 0
-3 -17 0
-3 -18 0
-3 -25 0
-3 -26 0
-3 -27 0
-3 -28 0
-3 -39 0
-3 -51 0
-3 -63 0
-3 -75 0
-3 -87 0
-3 -99 0
-3 -111 0
-3 -123 0
-3 -135 0
-4 -5 0
-4 -6 0
-4 -7 0
-4 -8 0
-4 -9 0
-4 -10 0
-4 -11 0
-4 -12 0
-4 -13 0
-4 -14 0
-4 -15 0
-4 -16 0
-4 -17 0
-4 -18 0
-4 -25 0
-4 -26 0
-4 -27 0
-4 -28 0
-4 -40 0
-4 -52 0
-4 -64 0
-4 -76 0
-4 -88 0
-4 -100 0
-4 -112 0
-4 -124 0
-4 -136 0
-5 -6 0
-5 -7 0
-5 -8 0
-5 -9 0
-5 -10 0
-5 -11 0
-5 -12 0
-5 -13 0
-5 -14 0
-5 -15 0
-5 -16 0
-5 -17 0
-5 -18 0
-5 -25 0
-5 -26 0
-5 -27 0
-5 -28 0
-5 -29 0
-5 -41 0
-5 -53 0
-5 -65 0
-5 -77 0
-5 -89 0
-5 -101 0
-5 -113 0
-5 -125 0
-5 -137 0
-6 -7 0
-6 -8 0
-6 -9 0
-6 -10 0
-6 -11 0
-6 -12 0
-6 -17 0
-6 -18 0
-6 -19 0
-6 -20 0
-6 -21 0
-6 -30 0
-6 -32 0
-6 -42 0
-6 -54 0
-6 -66 0
-6 -78 0
-6 -90 0
-6 -102 0
-6 -114 0
-6 -126 0
-6 -138 0
-7 -8 0
-7 -9 0
-7 -10 0
-7 -11 0
-7 -12 0
-7 -18 0
-7 -19 0
-7 -20 0
-7 -21 0
-7 -31 0
-7 -32 0
-7 -43 0
-7 -55 0
-7 -67 0
-7 -79 0
-7 -91 0
-7 -103 0
-7 -115 0
-7 -127 0
-7 -139 0
-8 -9 0
-8 -10 0
-8 -11 0
-8 -12 0
-8 -19 0
-8 -20 0
-8 -21 0
-8 -32 0
-8 -44 0
-8 -56 0
-8 -68 0
-8 -80 0
-8 -92 0
-8 -104 0
-8 -116 0
-8 -128 0
-8 -140 0
-9 -10 0
-9 -11 0
-9 -12 0
-9 -20 0
-9 -21 0
-9 -22 0
-9 -23 0
-9 -24 0
-9 -33 0
-9 -34 0
-9 -35 0
-9 -36 0
-9 -45 0
-9 -47 0
-9 -48 0
-9 -57 0
-9 -59 0
-9 -60 0
-9 -69 0
-9 -81 0
-9 -93 0
-9 -105 0
-9 -117 0
-9 -129 0
-9 -141 0
-10 -11 0
-10 -12 0
-10 -21 0
-10 -22 0
-10 -23 0
-10 -24 0
-10 -34 0
-10 -35 0
-10 -36 0
-10 -46 0
-10 -47 0
-10 -48 0
-10 -58 0
-10 -59 0
-10 -60 0
-10 -70 0
-10 -82 0
-10 -94 0
-10 -106 0
-10 -118 0
-10 -130 0
-10 -142 0
-11 -12 0
-11 -22 0
-11 -23 0
-11 -24 0
-11 -34 0
-11 -35 0
-11 -36 0
-11 -47 0
-11 -48 0
-11 -59 0
-11 -60 0
-11 -71 0
-11 -83 0
-11 -95 0
-11 -107 0
-11 -119 0
-11 -131 0
-11 -143 0
-12 -22 0
-12 -23 0
-12 -24 0
-12 -34 0
-12 -35 0
-12 -36 0
-12 -47 0
-12 -48 0
-12 -59 0
-12 -60 0
-12 -72 0
-12 -84 0
-12 -96 0
-12 -108 0
-12 -120 0
-12 -132 0
-12 -144 0
-13 -14 0
-13 -15 0
-13 -16 0
-13 -17 0
-13 -18 0
-13 -19 0
-13 -20 0
-13 -21 0
-13 -22 0
-13 -23 0
-13 -24 0
-13 -25 0
-13 -26 0
-13 -27 0
-13 -28 0
-13 -37 0
-13 -49 0
-13 -61 0
-13 -73 0
-13 -85 0
-13 -97 0
-13 -109 0
-13 -121 0
-13 -133 0
-14 -15 0
-14 -16 0
-14 -17 0
-14 -18 0
-14 -19 0
-14 -20 0
-14 -21 0
-14 -22 0
-14 -23 0
-14 -24 0
-14 -25 0
-14 -26 0
-14 -27 0
-14 -28 0
-14 -38 0
-14 -50 0
-14 -62 0
-14 -74 0
-14 -86 0
-14 -98 0
-14 -110 0
-14 -122 0
-14 -134 0
-15 -16 0
-15 -17 0
-15 -18 0
-15 -19 0
-15 -20 0
-15 -21 0
-15 -22 0
-15 -23 0
-15 -24 0
-15 -25 0
-15 -26 0
-15 -27 0
-15 -28 0
-15 -39 0
-15 -51 0
-15 -63 0
-15 -75 0
-15 -87 0
-15 -99 0
-15 -111 0
-15 -123 0
-15 -135 0
-16 -17 0
-16 -18 0
-16 -19 0
-16 -20 0
-16 -21 0
-16 -22 0
-16 -23 0
-16 -24 0
-16 -25 0
-16 -26 0
-16 -27 0
-16 -28 0
-16 -29 0
-16 -40 0
-16 -52 0
-16 -64 0
-16 -76 0
-16 -88 0
-16 -100 0
-16 -112 0
-16 -124 0
-16 -136 0
-17 -18 0
-17 -19 0
-17 -20 0
-17 -21 0
-17 -22 0
-17 -23 0
-17 -24 0
-17 -25 0
-17 -26 0
-17 -27 0
-17 -28 0
-17 -29 0
-17 -30 0
-17 -41 0
-17 -53 0
-17 -65 0
-17 -77 0
-17 -89 0
-17 -101 0
-17 -113 0
-17 -125 0
-17 -137 0
-18 -19 0
-18 -20 0
-18 -21 0
-18 -22 0
-18 -23 0
-18 -24 0
-18 -25 0
-18 -26 0
-18 -27 0
-18 -28 0
-18 -29 0
-18 -30 0
-18 -31 0
-18 -42 0
-18 -54 0
-18 -66 0
-18 -78 0
-18 -90 0
-18 -102 0
-18 -114 0
-18 -126 0
-18 -138 0
-19 -20 0
-19 -21 0
-19 -22 0
-19 -23 0
-19 -24 0
-19 -30 0
-19 -31 0
-19 -32 0
-19 -43 0
-19 -55 0
-19 -67 0
-19 -79 0
-19 -91 0
-19 -103 0
-19 -115 0
-19 -127 0
-19 -139 0
-20 -21 0
-20 -22 0
-20 -23 0
-20 -24 0
-20 -31 0
-20 -32 0
-20 -33 0
-20 -44 0
-20 -56 0
-20 -68 0
-20 -80 0
-20 -92 0
-20 -104 0
-20 -116 0
-20 -128 0
-20 -140 0
-21 -22 0
-21 -23 0
-21 -24 0
-21 -32 0
-21 -33 0
-21 -34 0
-21 -45 0
-21 -57 0
-21 -69 0
-21 -81 0
-21 -93 0
-21 -105 0
-21 -117 0
-21 -129 0
-21 -141 0
-22 -23 0
-22 -24 0
-22 -33 0
-22 -34 0
-22 -35 0
-22 -36 0
-22 -46 0
-22 -47 0
-22 -48 0
-22 -58 0
-22 -59 0
-22 -60 0
-22 -70 0
-22 -82 0
-22 -94 0
-22 -106 0
-22 -118 0
-22 -130 0
-22 -142 0
-23 -24 0
-23 -34 0
-23 -35 0
-23 -36 0
-23 -47 0
-23 -48 0
-23 -59 0
-23 -60 0
-23 -71 0
-23 -83 0
-23 -95 0
-23 -107 0
-23 -119 0
-23 -131 0
-23 -143 0
-24 -34 0
-24 -35 0
-24 -36 0
-24 -47 0
-24 -48 0
-24 -59 0
-24 -60 0
-24 -72 0
-24 -84 0
-24 -96 0
-24 -108 0
-24 -120 0
-24 -132 0
-24 -144 0
-25 -26 0
-25 -27 0
-25 -28 0
-25 -29 0
-25 -30 0
-25 -31 0
-25 -32 0
-25 -33 0
-25 -34 0
-25 -35 0
-25 -36 0
-25 -37 0
-25 -38 0
-25 -49 0
-25 -61 0
-25 -73 0
-25 -85 0
-25 -97 0
-25 -109 0
-25 -121 0
-25 -133 0
-26 -27 0
-26 -28 0
-26 -29 0
-26 -30 0
-26 -31 0
-26 -32 0
-26 -33 0
-26 -34 0
-26 -35 0
-26 -36 0
-26 -37 0
-26 -38 0
-26 -39 0
-26 -50 0
-26 -62 0
-26 -74 0
-26 -86 0
-26 -98 0
-26 -110 0
-26 -122 0
-26 -134 0
-27 -28 0
-27 -29 0
-27 -30 0
-27 -31 0
-27 -32 0
-27 -33 0
-27 -34 0
-27 -35 0
-27 -36 0
-27 -38 0
-27 -39 0
-27 -40 0
-27 -51 0
-27 -63 0
-27 -75 0
-27 -87 0
-27 -99 0
-27 -111 0
-27 -123 0
-27 -135 0
-28 -29 0
-28 -30 0
-28 -31 0
-28 -32 0
-28 -33 0
-28 -34 0
-28 -35 0
-28 -36 0
-28 -39 0
-28 -40 0
-28 -41 0
-28 -52 0
-28 -64 0
-28 -76 0
-28 -88 0
-28 -100 0
-28 -112 0
-28 -124 0
-28 -136 0
-29 -30 0
-29 -31 0
-29 -32 0
-29 -33 0
-29 -34 0
-29 -35 0
-29 -36 0
-29 -40 0
-29 -41 0
-29 -42 0
-29 -43 0
-29 -44 0
-29 -45 0
-29 -53 0
-29 -54 0
-29 -55 0
-29 -56 0
-29 -57 0
-29 -65 0
-29 -66 0
-29 -67 0
-29 -68 0
-29 -77 0
-29 -89 0
-29 -101 0
-29 -113 0
-29 -125 0
-29 -137 0
-30 -31 0
-30 -32 0
-30 -33 0
-30 -34 0
-30 -35 0
-30 -36 0
-30 -41 0
-30 -42 0
-30 -43 0
-30 -44 0
-30 -45 0
-30 -53 0
-30 -54 0
-30 -55 0
-30 -56 0
-30 -57 0
-30 -66 0
-30 -67 0
-30 -68 0
-30 -78 0
-30 -90 0
-30 -102 0
-30 -114 0
-30 -126 0
-30 -138 0
-31 -32 0
-31 -33 0
-31 -34 0
-31 -35 0
-31 -36 0
-31 -41 0
-31 -42 0
-31 -43 0
-31 -44 0
-31 -45 0
-31 -53 0
-31 -54 0
-31 -55 0
-31 -56 0
-31 -57 0
-31 -66 0
-31 -67 0
-31 -68 0
-31 -79 0
-31 -91 0
-31 -103 0
-31 -115 0
-31 -127 0
-31 -139 0
-32 -33 0
-32 -34 0
-32 -35 0
-32 -36 0
-32 -43 0
-32 -44 0
-32 -45 0
-32 -56 0
-32 -68 0
-32 -80 0
-32 -92 0
-32 -104 0
-32 -116 0
-32 -128 0
-32 -140 0
-33 -34 0
-33 -35 0
-33 -36 0
-33 -41 0
-33 -42 0
-33 -43 0
-33 -44 0
-33 -45 0
-33 -46 0
-33 -53 0
-33 -54 0
-33 -55 0
-33 -56 0
-33 -57 0
-33 -66 0
-33 -67 0
-33 -68 0
-33 -69 0
-33 -81 0
-33 -93 0
-33 -105 0
-33 -117 0
-33 -129 0
-33 -141 0
-34 -35 0
-34 -36 0
-34 -45 0
-34 -46 0
-34 -47 0
-34 -48 0
-34 -58 0
-34 -59 0
-34 -60 0
-34 -70 0
-34 -82 0
-34 -94 0
-34 -106 0
-34 -118 0
-34 -130 0
-34 -142 0
-35 -36 0
-35 -46 0
-35 -47 0
-35 -48 0
-35 -59 0
-35 -60 0
-35 -71 0
-35 -83 0
-35 -95 0
-35 -107 0
-35 -119 0
-35 -131 0
-35 -143 0
-36 -47 0
-36 -48 0
-36 -59 0
-36 -60 0
-36 -72 0
-36 -84 0
-36 -96 0
-36 -108 0
-36 -120 0
-36 -132 0
-36 -144 0
-37 -38 0
-37 -39 0
-37 -40 0
-37 -41 0
-37 -42 0
-37 -43 0
-37 -44 0
-37 -45 0
-37 -46 0
-37 -47 0
-37 -48 0
-37 -49 0
-37 -50 0
-37 -51 0
-37 -52 0
-37 -61 0
-37 -62 0
-37 -63 0
-37 -64 0
-37 -65 0
-37 -73 0
-37 -74 0
-37 -75 0
-37 -76 0
-37 -85 0
-37 -86 0
-37 -97 0
-37 -98 0
-37 -109 0
-37 -121 0
-37 -133 0
-38 -39 0
-38 -40 0
-38 -41 0
-38 -42 0
-38 -43 0
-38 -44 0
-38 -45 0
-38 -46 0
-38 -47 0
-38 -48 0
-38 -49 0
-38 -50 0
-38 -51 0
-38 -52 0
-38 -61 0
-38 -62 0
-38 -63 0
-38 -64 0
-38 -65 0
-38 -73 0
-38 -74 0
-38 -75 0
-38 -76 0
-38 -85 0
-38 -86 0
-38 -97 0
-38 -98 0
-38 -110 0
-38 -122 0
-38 -134 0
-39 -40 0
-39 -41 0
-39 -42 0
-39 -43 0
-39 -44 0
-39 -45 0
-39 -46 0
-39 -47 0
-39 -48 0
-39 -49 0
-39 -50 0
-39 -51 0
-39 -52 0
-39 -61 0
-39 -62 0
-39 -63 0
-39 -64 0
-39 -65 0
-39 -73 0
-39 -74 0
-39 -75 0
-39 -76 0
-39 -85 0
-39 -86 0
-39 -87 0
-39 -97 0
-39 -98 0
-39 -99 0
-39 -111 0
-39 -123 0
-39 -135 0
-40 -41 0
-40 -42 0
-40 -43 0
-40 -44 0
-40 -45 0
-40 -46 0
-40 -47 0
-40 -48 0
-40 -49 0
-40 -50 0
-40 -51 0
-40 -52 0
-40 -53 0
-40 -61 0
-40 -62 0
-40 -63 0
-40 -64 0
-40 -65 0
-40 -73 0
-40 -74 0
-40 -75 0
-40 -76 0
-40 -85 0
-40 -86 0
-40 -88 0
-40 -97 0
-40 -98 0
-40 -100 0
-40 -112 0
-40 -124 0
-40 -136 0
-41 -42 0
-41 -43 0
-41 -44 0
-41 -45 0
-41 -46 0
-41 -47 0
-41 -48 0
-41 -52 0
-41 -53 0
-41 -54 0
-41 -55 0
-41 -56 0
-41 -57 0
-41 -65 0
-41 -66 0
-41 -67 0
-41 -68 0
-41 -77 0
-41 -89 0
-41 -101 0
-41 -113 0
-41 -125 0
-41 -137 0
-42 -43 0
-42 -44 0
-42 -45 0
-42 -46 0
-42 -47 0
-42 -48 0
-42 -53 0
-42 -54 0
-42 -55 0
-42 -56 0
-42 -57 0
-42 -66 0
-42 -67 0
-42 -68 0
-42 -78 0
-42 -90 0
-42 -102 0
-42 -114 0
-42 -126 0
-42 -138 0
-43 -44 0
-43 -45 0
-43 -46 0
-43 -47 0
-43 -48 0
-43 -53 0
-43 -54 0
-43 -55 0
-43 -56 0
-43 -57 0
-43 -66 0
-43 -67 0
-43 -68 0
-43 -79 0
-43 -91 0
-43 -103 0
-43 -115 0
-43 -127 0
-43 -139 0
-44 -45 0
-44 -46 0
-44 -47 0
-44 -48 0
-44 -53 0
-44 -54 0
-44 -55 0
-44 -56 0
-44 -57 0
-44 -66 0
-44 -67 0
-44 -68 0
-44 -80 0
-44 -92 0
-44 -104 0
-44 -116 0
-44 -128 0
-44 -140 0
-45 -46 0
-45 -47 0
-45 -48 0
-45 -53 0
-45 -54 0
-45 -55 0
-45 -56 0
-45 -57 0
-45 -58 0
-45 -66 0
-45 -67 0
-45 -68 0
-45 -69 0
-45 -81 0
-45 -93 0
-45 -105 0
-45 -117 0
-45 -129 0
-45 -141 0
-46 -47 0
-46 -48 0
-46 -57 0
-46 -58 0
-46 -59 0
-46 -70 0
-46 -71 0
-46 -72 0
-46 -82 0
-46 -83 0
-46 -84 0
-46 -94 0
-46 -95 0
-46 -96 0
-46 -106 0
-46 -107 0
-46 -108 0
-46 -118 0
-46 -130 0
-46 -142 0
-47 -48 0
-47 -58 0
-47 -59 0
-47 -60 0
-47 -71 0
-47 -83 0
-47 -95 0
-47 -107 0
-47 -119 0
-47 -131 0
-47 -143 0
-48 -59 0
-48 -60 0
-48 -72 0
-48 -84 0
-48 -96 0
-48 -108 0
-48 -120 0
-48 -132 0
-48 -144 0
-49 -50 0
-49 -51 0
-49 -52 0
-49 -53 0
-49 -54 0
-49 -55 0
-49 -56 0
-49 -57 0
-49 -58 0
-49 -59 0
-49 -60 0
-49 -61 0
-49 -62 0
-49 -63 0
-49 -64 0
-49 -65 0
-49 -73 0
-49 -74 0
-49 -75 0
-49 -76 0
-49 -85 0
-49 -86 0
-49 -97 0
-49 -98 0
-49 -109 0
-49 -121 0
-49 -133 0
-50 -51 0
-50 -52 0
-50 -53 0
-50 -54 0
-50 -55 0
-50 -56 0
-50 -57 0
-50 -58 0
-50 -59 0
-50 -60 0
-50 -61 0
-50 -62 0
-50 -63 0
-50 -64 0
-50 -65 0
-50 -73 0
-50 -74 0
-50 -75 0
-50 -76 0
-50 -85 0
-50 -86 0
-50 -97 0
-50 -98 0
-50 -110 0
-50 -122 0
-50 -134 0
-51 -52 0
-51 -53 0
-51 -54 0
-51 -55 0
-51 -56 0
-51 -57 0
-51 -58 0
-51 -59 0
-51 -60 0
-51 -61 0
-51 -62 0
-51 -63 0
-51 -64 0
-51 -65 0
-51 -73 0
-51 -74 0
-51 -75 0
-51 -76 0
-51 -85 0
-51 -86 0
-51 -87 0
-51 -97 0
-51 -98 0
-51 -99 0
-51 -111 0
-51 -123 0
-51 -135 0
-52 -53 0
-52 -54 0
-52 -55 0
-52 -56 0
-52 -57 0
-52 -58 0
-52 -59 0
-52 -60 0
-52 -61 0
-52 -62 0
-52 -63 0
-52 -64 0
-52 -65 0
-52 -73 0
-52 -74 0
-52 -75 0
-52 -76 0
-52 -85 0
-52 -86 0
-52 -88 0
-52 -97 0
-52 -98 0
-52 -100 0
-52 -112 0
-52 -124 0
-52 -136 0
-53 -54 0
-53 -55 0
-53 -56 0
-53 -57 0
-53 -58 0
-53 -59 0
-53 -60 0
-53 -64 0
-53 -65 0
-53 -66 0
-53 -67 0
-53 -68 0
-53 -77 0
-53 -89 0
-53 -101 0
-53 -113 0
-53 -125 0
-53 -137 0
-54 -55 0
-54 -56 0
-54 -57 0
-54 -58 0
-54 -59 0
-54 -60 0
-54 -65 0
-54 -66 0
-54 -67 0
-54 -68 0
-54 -78 0
-54 -90 0
-54 -102 0
-54 -114 0
-54 -126 0
-54 -138 0
-55 -56 0
-55 -57 0
-55 -58 0
-55 -59 0
-55 -60 0
-55 -66 0
-55 -67 0
-55 -68 0
-55 -79 0
-55 -91 0
-55 -103 0
-55 -115 0
-55 -127 0
-55 -139 0
-56 -57 0
-56 -58 0
-56 -59 0
-56 -60 0
-56 -66 0
-56 -67 0
-56 -68 0
-56 -69 0
-56 -80 0
-56 -92 0
-56 -104 0
-56 -116 0
-56 -128 0
-56 -140 0
-57 -58 0
-57 -59 0
-57 -60 0
-57 -66 0
-57 -67 0
-57 -68 0
-57 -69 0
-57 -70 0
-57 -81 0
-57 -93 0
-57 -105 0
-57 -117 0
-57 -129 0
-57 -141 0
-58 -59 0
-58 -60 0
-58 -69 0
-58 -70 0
-58 -71 0
-58 -72 0
-58 -82 0
-58 -83 0
-58 -84 0
-58 -94 0
-58 -95 0
-58 -96 0
-58 -106 0
-58 -107 0
-58 -108 0
-58 -118 0
-58 -130 0
-58 -142 0
-59 -60 0
-59 -70 0
-59 -71 0
-59 -72 0
-59 -83 0
-59 -95 0
-59 -107 0
-59 -119 0
-59 -131 0
-59 -143 0
-60 -71 0
-60 -72 0
-60 -84 0
-60 -96 0
-60 -108 0
-60 -120 0
-60 -132 0
-60 -144 0
-61 -62 0
-61 -63 0
-61 -64 0
-61 -65 0
-61 -66 0
-61 -67 0
-61 -68 0
-61 -69 0
-61 -70 0
-61 -71 0
-61 -72 0
-61 -73 0
-61 -74 0
-61 -75 0
-61 -76 0
-61 -85 0
-61 -86 0
-61 -97 0
-61 -98 0
-61 -109 0
-61 -121 0
-61 -133 0
-62 -63 0
-62 -64 0
-62 -65 0
-62 -66 0
-62 -67 0
-62 -68 0
-62 -69 0
-62 -70 0
-62 -71 0
-62 -72 0
-62 -73 0
-62 -74 0
-62 -75 0
-62 -76 0
-62 -85 0
-62 -86 0
-62 -97 0
-62 -98 0
-62 -110 0
-62 -122 0
-62 -134 0
-63 -64 0
-63 -65 0
-63 -66 0
-63 -67 0
-63 -68 0
-63 -69 0
-63 -70 0
-63 -71 0
-63 -72 0
-63 -73 0
-63 -74 0
-63 -75 0
-63 -76 0
-63 -85 0
-63 -86 0
-63 -87 0
-63 -97 0
-63 -98 0
-63 -99 0
-63 -111 0
-63 -123 0
-63 -135 0
-64 -65 0
-64 -66 0
-64 -67 0
-64 -68 0
-64 -69 0
-64 -70 0
-64 -71 0
-64 -72 0
-64 -73 0
-64 -74 0
-64 -75 0
-64 -76 0
-64 -77 0
-64 -85 0
-64 -86 0
-64 -88 0
-64 -97 0
-64 -98 0
-64 -100 0
-64 -112 0
-64 -124 0
-64 -136 0
-65 -66 0
-65 -67 0
-65 -68 0
-65 -69 0
-65 -70 0
-65 -71 0
-65 -72 0
-65 -73 0
-65 -74 0
-65 -75 0
-65 -76 0
-65 -77 0
-65 -78 0
-65 -85 0
-65 -86 0
-65 -89 0
-65 -97 0
-65 -98 0
-65 -101 0
-65 -113 0
-65 -125 0
-65 -137 0
-66 -67 0
-66 -68 0
-66 -69 0
-66 -70 0
-66 -71 0
-66 -72 0
-66 -77 0
-66 -78 0
-66 -79 0
-66 -90 0
-66 -102 0
-66 -114 0
-66 -126 0
-66 -138 0
-67 -68 0
-67 -69 0
-67 -70 0
-67 -71 0
-67 -72 0
-67 -78 0
-67 -79 0
-67 -80 0
-67 -91 0
-67 -103 0
-67 -115 0
-67 -127 0
-67 -139 0
-68 -69 0
-68 -70 0
-68 -71 0
-68 -72 0
-68 -79 0
-68 -80 0
-68 -81 0
-68 -92 0
-68 -104 0
-68 -116 0
-68 -128 0
-68 -140 0
-69 -70 0
-69 -71 0
-69 -72 0
-69 -80 0
-69 -81 0
-69 -82 0
-69 -93 0
-69 -105 0
-69 -117 0
-69 -129 0
-69 -141 0
-70 -71 0
-70 -72 0
-70 -81 0
-70 -82 0
-70 -83 0
-70 -84 0
-70 -94 0
-70 -95 0
-70 -96 0
-70 -106 0
-70 -107 0
-70 -108 0
-70 -118 0
-70 -130 0
-70 -142 0
-71 -72 0
-71 -82 0
-71 -83 0
-71 -84 0
-71 -95 0
-71 -96 0
-71 -107 0
-71 -108 0
-71 -119 0
-71 -131 0
-71 -143 0
-72 -82 0
-72 -83 0
-72 -84 0
-72 -95 0
-72 -96 0
-72 -107 0
-72 -108 0
-72 -120 0
-72 -132 0
-72 -144 0
-73 -74 0
-73 -75 0
-73 -76 0
-73 -77 0
-73 -78 0
-73 -79 0
-73 -80 0
-73 -81 0
-73 -82 0
-73 -83 0
-73 -84 0
-73 -85 0
-73 -86 0
-73 -97 0
-73 -98 0
-73 -109 0
-73 -121 0
-73 -133 0
-74 -75 0
-74 -76 0
-74 -77 0
-74 -78 0
-74 -79 0
-74 -80 0
-74 -81 0
-74 -82 0
-74 -83 0
-74 -84 0
-74 -85 0
-74 -86 0
-74 -87 0
-74 -97 0
-74 -98 0
-74 -110 0
-74 -122 0
-74 -134 0
-75 -76 0
-75 -77 0
-75 -78 0
-75 -79 0
-75 -80 0
-75 -81 0
-75 -82 0
-75 -83 0
-75 -84 0
-75 -85 0
-75 -86 0
-75 -87 0
-75 -88 0
-75 -97 0
-75 -98 0
-75 -99 0
-75 -111 0
-75 -123 0
-75 -135 0
-76 -77 0
-76 -78 0
-76 -79 0
-76 -80 0
-76 -81 0
-76 -82 0
-76 -83 0
-76 -84 0
-76 -85 0
-76 -86 0
-76 -87 0
-76 -88 0
-76 -89 0
-76 -97 0
-76 -98 0
-76 -100 0
-76 -112 0
-76 -124 0
-76 -136 0
-77 -78 0
-77 -79 0
-77 -80 0
-77 -81 0
-77 -82 0
-77 -83 0
-77 -84 0
-77 -88 0
-77 -89 0
-77 -90 0
-77 -91 0
-77 -92 0
-77 -101 0
-77 -102 0
-77 -104 0
-77 -113 0
-77 -116 0
-77 -125 0
-77 -137 0
-78 -79 0
-78 -80 0
-78 -81 0
-78 -82 0
-78 -83 0
-78 -84 0
-78 -88 0
-78 -89 0
-78 -90 0
-78 -91 0
-78 -92 0
-78 -102 0
-78 -104 0
-78 -114 0
-78 -116 0
-78 -126 0
-78 -138 0
-79 -80 0
-79 -81 0
-79 -82 0
-79 -83 0
-79 -84 0
-79 -88 0
-79 -89 0
-79 -90 0
-79 -91 0
-79 -92 0
-79 -102 0
-79 -103 0
-79 -104 0
-79 -115 0
-79 -116 0
-79 -127 0
-79 -139 0
-80 -81 0
-80 -82 0
-80 -83 0
-80 -84 0
-80 -91 0
-80 -92 0
-80 -93 0
-80 -104 0
-80 -116 0
-80 -128 0
-80 -140 0
-81 -82 0
-81 -83 0
-81 -84 0
-81 -92 0
-81 -93 0
-81 -94 0
-81 -105 0
-81 -117 0
-81 -129 0
-81 -141 0
-82 -83 0
-82 -84 0
-82 -93 0
-82 -94 0
-82 -95 0
-82 -96 0
-82 -106 0
-82 -107 0
-82 -108 0
-82 -118 0
-82 -130 0
-82 -142 0
-83 -84 0
-83 -94 0
-83 -95 0
-83 -96 0
-83 -107 0
-83 -108 0
-83 -119 0
-83 -131 0
-83 -143 0
-84 -95 0
-84 -96 0
-84 -107 0
-84 -108 0
-84 -120 0
-84 -132 0
-84 -144 0
-85 -86 0
-85 -87 0
-85 -88 0
-85 -89 0
-85 -90 0
-85 -91 0
-85 -92 0
-85 -93 0
-85 -94 0
-85 -95 0
-85 -96 0
-85 -97 0
-85 -98 0
-85 -109 0
-85 -121 0
-85 -133 0
-86 -87 0
-86 -88 0
-86 -89 0
-86 -90 0
-86 -91 0
-86 -92 0
-86 -93 0
-86 -94 0
-86 -95 0
-86 -96 0
-86 -97 0
-86 -98 0
-86 -99 0
-86 -110 0
-86 -122 0
-86 -134 0
-87 -88 0
-87 -89 0
-87 -90 0
-87 -91 0
-87 -92 0
-87 -93 0
-87 -94 0
-87 -95 0
-87 -96 0
-87 -98 0
-87 -99 0
-87 -100 0
-87 -101 0
-87 -111 0
-87 -112 0
-87 -113 0
-87 -123 0
-87 -124 0
-87 -125 0
-87 -135 0
-88 -89 0
-88 -90 0
-88 -91 0
-88 -92 0
-88 -93 0
-88 -94 0
-88 -95 0
-88 -96 0
-88 -99 0
-88 -100 0
-88 -101 0
-88 -102 0
-88 -104 0
-88 -112 0
-88 -116 0
-88 -124 0
-88 -136 0
-89 -90 0
-89 -91 0
-89 -92 0
-89 -93 0
-89 -94 0
-89 -95 0
-89 -96 0
-89 -100 0
-89 -101 0
-89 -102 0
-89 -104 0
-89 -113 0
-89 -116 0
-89 -125 0
-89 -137 0
-90 -91 0
-90 -92 0
-90 -93 0
-90 -94 0
-90 -95 0
-90 -96 0
-90 -101 0
-90 -102 0
-90 -103 0
-90 -104 0
-90 -114 0
-90 -116 0
-90 -126 0
-90 -138 0
-91 -92 0
-91 -93 0
-91 -94 0
-91 -95 0
-91 -96 0
-91 -102 0
-91 -103 0
-91 -104 0
-91 -115 0
-91 -116 0
-91 -127 0
-91 -139 0
-92 -93 0
-92 -94 0
-92 -95 0
-92 -96 0
-92 -102 0
-92 -103 0
-92 -104 0
-92 -105 0
-92 -116 0
-92 -128 0
-92 -140 0
-93 -94 0
-93 -95 0
-93 -96 0
-93 -104 0
-93 -105 0
-93 -106 0
-93 -117 0
-93 -118 0
-93 -119 0
-93 -120 0
-93 -129 0
-93 -130 0
-93 -131 0
-93 -132 0
-93 -141 0
-93 -142 0
-93 -143 0
-93 -144 0
-94 -95 0
-94 -96 0
-94 -105 0
-94 -106 0
-94 -107 0
-94 -117 0
-94 -118 0
-94 -119 0
-94 -120 0
-94 -129 0
-94 -130 0
-94 -131 0
-94 -132 0
-94 -141 0
-94 -142 0
-94 -143 0
-94 -144 0
-95 -96 0
-95 -106 0
-95 -107 0
-95 -108 0
-95 -119 0
-95 -131 0
-95 -143 0
-96 -107 0
-96 -108 0
-96 -120 0
-96 -132 0
-96 -144 0
-97 -98 0
-97 -99 0
-97 -100 0
-97 -101 0
-97 -102 0
-97 -103 0
-97 -104 0
-97 -105 0
-97 -106 0
-97 -107 0
-97 -108 0
-97 -109 0
-97 -110 0
-97 -121 0
-97 -133 0
-98 -99 0
-98 -100 0
-98 -101 0
-98 -102 0
-98 -103 0
-98 -104 0
-98 -105 0
-98 -106 0
-98 -107 0
-98 -108 0
-98 -109 0
-98 -110 0
-98 -111 0
-98 -122 0
-98 -134 0
-99 -100 0
-99 -101 0
-99 -102 0
-99 -103 0
-99 -104 0
-99 -105 0
-99 -106 0
-99 -107 0
-99 -108 0
-99 -110 0
-99 -111 0
-99 -112 0
-99 -113 0
-99 -123 0
-99 -124 0
-99 -125 0
-99 -135 0
-100 -101 0
-100 -102 0
-100 -103 0
-100 -104 0
-100 -105 0
-100 -106 0
-100 -107 0
-100 -108 0
-100 -111 0
-100 -112 0
-100 -113 0
-100 -123 0
-100 -124 0
-100 -125 0
-100 -135 0
-100 -136 0
-101 -102 0
-101 -103 0
-101 -104 0
-101 -105 0
-101 -106 0
-101 -107 0
-101 -108 0
-101 -111 0
-101 -112 0
-101 -113 0
-101 -114 0
-101 -123 0
-101 -124 0
-101 -125 0
-101 -135 0
-101 -137 0
-102 -103 0
-102 -104 0
-102 -105 0
-102 -106 0
-102 -107 0
-102 -108 0
-102 -113 0
-102 -114 0
-102 -115 0
-102 -116 0
-102 -126 0
-102 -138 0
-103 -104 0
-103 -105 0
-103 -106 0
-103 -107 0
-103 -108 0
-103 -114 0
-103 -115 0
-103 -116 0
-103 -126 0
-103 -127 0
-103 -128 0
-103 -136 0
-103 -137 0
-103 -138 0
-103 -139 0
-103 -140 0
-104 -105 0
-104 -106 0
-104 -107 0
-104 -108 0
-104 -115 0
-104 -116 0
-104 -117 0
-104 -128 0
-104 -140 0
-105 -106 0
-105 -107 0
-105 -108 0
-105 -116 0
-105 -117 0
-105 -118 0
-105 -119 0
-105 -120 0
-105 -129 0
-105 -130 0
-105 -131 0
-105 -132 0
-105 -141 0
-105 -142 0
-105 -143 0
-105 -144 0
-106 -107 0
-106 -108 0
-106 -117 0
-106 -118 0
-106 -119 0
-106 -120 0
-106 -129 0
-106 -130 0
-106 -131 0
-106 -132 0
-106 -141 0
-106 -142 0
-106 -143 0
-106 -144 0
-107 -108 0
-107 -118 0
-107 -119 0
-107 -120 0
-107 -131 0
-107 -143 0
-108 -119 0
-108 -120 0
-108 -132 0
-108 -144 0
-109 -110 0
-109 -111 0
-109 -112 0
-109 -113 0
-109 -114 0
-109 -115 0
-109 -116 0
-109 -117 0
-109 -118 0
-109 -119 0
-109 -120 0
-109 -121 0
-109 -122 0
-109 -133 0
-109 -134 0
-110 -111 0
-110 -112 0
-110 -113 0
-110 -114 0
-110 -115 0
-110 -116 0
-110 -117 0
-110 -118 0
-110 -119 0
-110 -120 0
-110 -121 0
-110 -122 0
-110 -123 0
-110 -133 0
-110 -134 0
-111 -112 0
-111 -113 0
-111 -114 0
-111 -115 0
-111 -116 0
-111 -117 0
-111 -118 0
-111 -119 0
-111 -120 0
-111 -122 0
-111 -123 0
-111 -124 0
-111 -125 0
-111 -135 0
-112 -113 0
-112 -114 0
-112 -115 0
-112 -116 0
-112 -117 0
-112 -118 0
-112 -119 0
-112 -120 0
-112 -123 0
-112 -124 0
-112 -125 0
-112 -135 0
-112 -136 0
-113 -114 0
-113 -115 0
-113 -116 0
-113 -117 0
-113 -118 0
-113 -119 0
-113 -120 0
-113 -123 0
-113 -124 0
-113 -125 0
-113 -126 0
-113 -135 0
-113 -137 0
-114 -115 0
-114 -116 0
-114 -117 0
-114 -118 0
-114 -119 0
-114 -120 0
-114 -125 0
-114 -126 0
-114 -127 0
-114 -128 0
-114 -136 0
-114 -137 0
-114 -138 0
-114 -139 0
-114 -140 0
-115 -116 0
-115 -117 0
-115 -118 0
-115 -119 0
-115 -120 0
-115 -126 0
-115 -127 0
-115 -128 0
-115 -136 0
-115 -137 0
-115 -138 0
-115 -139 0
-115 -140 0
-116 -117 0
-116 -118 0
-116 -119 0
-116 -120 0
-116 -127 0
-116 -128 0
-116 -129 0
-116 -140 0
-117 -118 0
-117 -119 0
-117 -120 0
-117 -128 0
-117 -129 0
-117 -130 0
-117 -131 0
-117 -132 0
-117 -141 0
-117 -142 0
-117 -143 0
-117 -144 0
-118 -119 0
-118 -120 0
-118 -129 0
-118 -130 0
-118 -131 0
-118 -132 0
-118 -141 0
-118 -142 0
-118 -143 0
-118 -144 0
-119 -120 0
-119 -129 0
-119 -130 0
-119 -131 0
-119 -132 0
-119 -141 0
-119 -142 0
-119 -143 0
-119 -144 0
-120 -129 0
-120 -130 0
-120 -131 0
-120 -132 0
-120 -141 0
-120 -142 0
-120 -143 0
-120 -144 0
-121 -122 0
-121 -123 0
-121 -124 0
-121 -125 0
-121 -126 0
-121 -127 0
-121 -128 0
-121 -129 0
-121 -130 0
-121 -131 0
-121 -132 0
-121 -133 0
-121 -134 0
-122 -123 0
-122 -124 0
-122 -125 0
-122 -126 0
-122 -127 0
-122 -128 0
-122 -129 0
-122 -130 0
-122 -131 0
-122 -132 0
-122 -133 0
-122 -134 0
-122 -135 0
-123 -124 0
-123 -125 0
-123 -126 0
-123 -127 0
-123 -128 0
-123 -129 0
-123 -130 0
-123 -131 0
-123 -132 0
-123 -134 0
-123 -135 0
-123 -136 0
-124 -125 0
-124 -126 0
-124 -127 0
-124 -128 0
-124 -129 0
-124 -130 0
-124 -131 0
-124 -132 0
-124 -135 0
-124 -136 0
-124 -137 0
-125 -126 0
-125 -127 0
-125 -128 0
-125 -129 0
-125 -130 0
-125 -131 0
-125 -132 0
-125 -135 0
-125 -136 0
-125 -137 0
-125 -138 0
-126 -127 0
-126 -128 0
-126 -129 0
-126 -130 0
-126 -131 0
-126 -132 0
-126 -136 0
-126 -137 0
-126 -138 0
-126 -139 0
-126 -140 0
-127 -128 0
-127 -129 0
-127 -130 0
-127 -131 0
-127 -132 0
-127 -136 0
-127 -137 0
-127 -138 0
-127 -139 0
-127 -140 0
-128 -129 0
-128 -130 0
-128 -131 0
-128 -132 0
-128 -136 0
-128 -137 0
-128 -138 0
-128 -139 0
-128 -140 0
-128 -141 0
-129 -130 0
-129 -131 0
-129 -132 0
-129 -140 0
-129 -141 0
-129 -142 0
-129 -143 0
-129 -144 0
-130 -131 0
-130 -132 0
-130 -141 0
-130 -142 0
-130 -143 0
-130 -144 0
-131 -132 0
-131 -141 0
-131 -142 0
-131 -143 0
-131 -144 0
-132 -141 0
-132 -142 0
-132 -143 0
-132 -144 0
-133 -134 0
-133 -135 0
-133 -136 0
-133 -137 0
-133 -138 0
-133 -139 0
-133 -140 0
-133 -141 0
-133 -142 0
-133 -143 0
-133 -144 0
-134 -135 0
-134 -136 0
-134 -137 0
-134 -138 0
-134 -139 0
-134 -140 0
-134 -141 0
-134 -142 0
-134 -143 0
-134 -144 0
-135 -136 0
-135 -137 0
-135 -138 0
-135 -139 0
-135 -140 0
-135 -141 0
-135 -142 0
-135 -143 0
-135 -144 0
-136 -137 0
-136 -138 0
-136 -139 0
-136 -140 0
-136 -141 0
-136 -142 0
-136 -143 0
-136 -144 0
-137 -138 0
-137 -139 0
-137 -140 0
-137 -141 0
-137 -142 0
-137 -143 0
-137 -144 0
-138 -139 0
-138 -140 0
-138 -141 0
-138 -142 0
-138 -143 0
-138 -144 0
-139 -140 0
-139 -141 0
-139 -142 0
-139 -143 0
-139 -144 0
-140 -141 0
-140 -142 0
-140 -143 0
-140 -144 0
-141 -142 0
-141 -143 0
-141 -144 0
-142 -143 0
-142 -144 0
-143 -144 0
87 99 100 101 111 112 113 123 124 125 135 0
9 10 11 12 22 23 24 34 35 36 47 48 59 60 0
69 80 81 0
77 78 79 88 89 90 91 92 102 104 116 0
6 7 8 19 20 21 32 0
109 110 121 122 133 134 0
1 2 3 4 5 13 14 15 16 17 18 25 26 27 28 0
93 94 105 106 117 118 119 120 129 130 131 132 141 142 143 144 0
46 58 70 71 72 82 83 84 95 96 107 108 0
29 30 31 33 41 42 43 44 45 53 54 55 56 57 66 67 68 0
37 38 39 40 49 50 51 52 61 62 63 64 65 73 74 75 76 85 86 97 98 0
103 114 115 126 127 128 136 137 138 139 140 0
